c Generated by rand.py 50 250 3 153316
c Generator source: https://github.com/aaw/sat/blob/master/gen/rand.py
p cnf 50 250
22 -28 44 0
-17 38 -39 0
24 43 48 0
-9 18 27 0
-10 12 40 0
-11 19 -42 0
18 -41 50 0
-17 -45 -47 0
11 46 50 0
2 42 49 0
-2 16 -44 0
-1 19 -40 0
-7 -34 39 0
30 -33 37 0
10 -29 40 0
21 -30 41 0
-13 -18 33 0
9 -24 -49 0
21 39 44 0
-33 -43 45 0
-20 21 29 0
-24 -37 -44 0
8 -14 -36 0
-18 -24 44 0
22 -28 -36 0
10 16 38 0
-12 -41 50 0
-24 27 -41 0
27 -37 43 0
-13 15 -31 0
-23 -34 46 0
-5 -22 -28 0
13 -40 -48 0
-3 -5 -47 0
13 25 -29 0
19 -21 -49 0
12 -22 -31 0
4 6 28 0
15 18 -43 0
5 17 39 0
10 -16 -20 0
13 43 -48 0
-3 47 50 0
-1 15 -40 0
-14 -30 44 0
32 -38 50 0
7 -17 -48 0
28 -40 45 0
-3 6 -30 0
7 -24 41 0
8 32 -44 0
-9 30 -50 0
-3 -29 -41 0
20 -33 50 0
-22 -40 43 0
-22 -33 50 0
-24 29 -40 0
-15 30 48 0
8 37 48 0
-1 -5 8 0
1 14 21 0
12 17 31 0
-8 -20 -35 0
-5 33 42 0
-25 -49 -50 0
13 33 50 0
7 42 44 0
-14 36 37 0
15 -39 40 0
7 -32 43 0
-5 34 -50 0
6 7 -39 0
-5 -15 45 0
26 27 -48 0
16 -46 47 0
-23 -26 -38 0
-10 -17 -25 0
1 27 -34 0
5 -22 -30 0
-34 41 -46 0
-2 -47 49 0
27 -32 47 0
10 -26 40 0
-4 -30 43 0
6 17 -48 0
8 25 -28 0
-6 -32 -41 0
13 19 42 0
-8 18 37 0
-16 -46 47 0
1 3 -13 0
8 10 19 0
-9 25 -38 0
1 31 36 0
-3 -42 -49 0
6 -15 -32 0
-11 21 -49 0
-1 -14 -31 0
2 23 -37 0
-1 -10 11 0
-4 -10 -29 0
4 -34 -35 0
-8 27 46 0
-11 -33 -50 0
-2 20 25 0
9 27 -30 0
26 31 38 0
-4 -16 -19 0
-24 -25 47 0
21 23 -30 0
-10 25 -47 0
12 -27 -44 0
22 -31 -37 0
-15 -20 -32 0
-17 -31 35 0
-12 20 34 0
-3 15 38 0
25 35 -46 0
-31 40 -44 0
1 -18 -31 0
1 -32 -49 0
-10 28 35 0
11 14 -40 0
9 -22 -30 0
4 17 37 0
2 25 49 0
-41 -46 49 0
5 -44 -45 0
6 22 40 0
19 36 -48 0
12 -27 -29 0
-22 -35 48 0
17 18 -48 0
38 -40 -47 0
-5 24 49 0
-11 -14 31 0
-16 -23 34 0
9 -16 -25 0
40 -41 46 0
7 -19 -29 0
9 31 -38 0
-6 12 24 0
-17 23 -38 0
20 -28 42 0
8 -12 16 0
37 38 46 0
14 -28 -36 0
10 28 33 0
10 -24 -36 0
3 -21 -35 0
-4 -8 -18 0
33 34 35 0
-4 -8 34 0
20 -35 -43 0
-33 35 41 0
-11 -13 -48 0
13 -18 -50 0
20 -36 40 0
-15 -16 -45 0
3 -16 37 0
29 31 44 0
19 22 33 0
-37 46 -48 0
9 -17 -36 0
-18 20 -30 0
28 -43 50 0
10 -30 -45 0
15 18 19 0
17 28 -38 0
-9 -27 -42 0
-12 -36 -40 0
-1 -6 -18 0
-1 -15 -23 0
19 -32 40 0
12 18 26 0
13 16 -49 0
8 -29 37 0
14 31 34 0
20 31 47 0
-19 26 -49 0
-13 26 -41 0
-17 -18 46 0
25 35 -41 0
-21 -33 50 0
10 -34 -38 0
1 -8 -43 0
7 29 46 0
-3 -39 49 0
15 24 50 0
14 18 -22 0
31 -41 -46 0
8 9 19 0
9 21 -25 0
-4 -16 40 0
18 -34 37 0
12 26 -30 0
8 -11 -38 0
-9 40 42 0
9 28 -46 0
-16 22 45 0
-1 33 34 0
2 -26 -37 0
2 5 41 0
-7 8 -40 0
-12 27 -46 0
-14 -16 -38 0
22 -28 38 0
3 -4 -38 0
-7 -15 46 0
-3 -11 47 0
-9 -24 49 0
-15 31 -39 0
2 21 -39 0
-1 37 -39 0
-19 31 42 0
-20 30 -48 0
8 19 -32 0
41 42 44 0
-6 8 31 0
-25 -39 46 0
10 -27 47 0
-13 40 -48 0
-3 -9 29 0
-3 -24 -27 0
7 12 20 0
3 38 40 0
-25 -44 49 0
-7 15 -21 0
13 18 38 0
-27 29 37 0
-11 -23 -42 0
7 9 -50 0
-11 24 26 0
2 37 -40 0
-1 -11 -49 0
-1 -30 41 0
13 22 29 0
-4 9 17 0
-2 27 42 0
-13 24 -31 0
-32 38 47 0
-17 20 33 0
15 24 37 0
22 -25 42 0
-10 42 44 0
-13 21 43 0
-27 28 -37 0
-4 -23 31 0
1 -32 41 0
7 -13 -29 0

