c Generated by rand.py 100 500 3 169688
c Generator source: https://github.com/aaw/sat/blob/master/gen/rand.py
p cnf 100 500
10 -25 98 0
26 88 92 0
-39 -63 81 0
-3 26 58 0
34 -45 -64 0
-10 33 -72 0
-15 -68 -87 0
-32 68 84 0
17 -35 38 0
2 -55 93 0
33 -42 -80 0
-51 61 -66 0
-24 -89 96 0
9 -19 -93 0
-40 50 -69 0
3 28 -68 0
-42 44 45 0
45 50 99 0
-57 -65 97 0
15 -19 -28 0
30 -41 -74 0
-3 -68 -90 0
-13 -67 86 0
6 -66 -73 0
9 10 24 0
-69 88 -98 0
-49 -51 63 0
17 23 -36 0
-43 56 58 0
4 -58 -78 0
-14 -81 -100 0
13 -26 -100 0
49 -58 -70 0
-31 -65 70 0
-21 31 -81 0
42 -94 -100 0
89 94 -99 0
-13 86 99 0
-42 -56 97 0
-29 -79 -86 0
-40 -62 -70 0
-34 41 52 0
16 55 -61 0
21 35 -45 0
-5 -52 98 0
-57 -68 77 0
-49 50 67 0
25 -85 96 0
-1 38 89 0
-16 75 95 0
19 66 84 0
76 81 97 0
44 -57 -98 0
26 -94 -100 0
28 -65 70 0
-24 -70 -73 0
71 -86 98 0
-3 7 78 0
12 -15 27 0
-14 76 -90 0
-20 -53 63 0
-6 -81 93 0
-54 70 -99 0
4 -57 82 0
-25 26 -46 0
-25 -89 97 0
-2 78 -94 0
25 29 64 0
-3 -15 96 0
-58 60 -71 0
-12 55 69 0
1 -48 -58 0
-24 25 -95 0
20 81 84 0
36 -38 -46 0
71 -75 -84 0
4 20 -70 0
-65 -83 -91 0
-29 54 -81 0
-8 39 -98 0
18 -24 -56 0
-25 -30 -50 0
-20 -40 -42 0
-40 -67 -68 0
-17 19 -23 0
-14 -31 85 0
30 67 -72 0
11 37 87 0
-35 -63 -84 0
-18 -56 -69 0
20 24 -79 0
-12 23 29 0
-34 44 -72 0
24 29 73 0
-3 -34 98 0
-28 35 77 0
-1 -23 71 0
-29 47 -48 0
23 87 94 0
20 52 -88 0
-28 -30 -76 0
22 62 67 0
34 -41 94 0
-36 97 -100 0
-8 -58 -100 0
-73 -94 -95 0
-44 92 99 0
50 -57 70 0
-46 86 -91 0
14 74 87 0
36 -66 73 0
21 65 68 0
2 3 -61 0
-7 -53 -89 0
25 -72 87 0
26 -37 65 0
-49 72 96 0
-37 53 64 0
-50 -77 97 0
-5 -65 79 0
-32 -76 80 0
-38 63 -87 0
-39 -58 -91 0
-25 34 97 0
28 60 84 0
2 25 -42 0
40 -78 -93 0
-55 86 89 0
-25 -67 -93 0
-9 39 69 0
13 -74 -90 0
4 6 -13 0
-4 7 43 0
38 57 75 0
-38 -45 -65 0
15 -83 88 0
7 42 -77 0
-9 59 -99 0
-8 24 100 0
-1 -60 -62 0
-17 69 -77 0
36 -51 -59 0
48 -71 -82 0
26 84 -94 0
13 79 84 0
-10 -55 -77 0
-26 -33 52 0
-33 35 -72 0
46 48 95 0
-41 -61 -88 0
27 32 -80 0
12 24 -57 0
14 77 -97 0
2 -40 95 0
-3 58 74 0
-14 19 -57 0
-68 74 77 0
-38 -70 97 0
-5 20 63 0
1 -13 -74 0
7 -26 -48 0
-21 23 -83 0
4 -35 -86 0
7 -46 93 0
-13 35 53 0
7 -50 70 0
23 96 97 0
42 85 -91 0
1 91 -92 0
-5 -26 -59 0
21 58 96 0
-70 -83 98 0
82 85 95 0
-6 22 -84 0
46 89 93 0
20 -24 -40 0
-6 24 -37 0
64 -66 99 0
63 -66 72 0
2 3 -32 0
-7 -55 88 0
2 -27 50 0
-4 -12 -93 0
47 -65 68 0
-17 -31 -82 0
7 19 -69 0
-27 -32 -51 0
5 -38 -91 0
27 28 -65 0
40 -69 -99 0
4 46 85 0
-24 -61 -66 0
-38 -52 -74 0
-3 -58 -94 0
33 42 82 0
23 54 -77 0
7 48 69 0
2 -14 55 0
-29 73 86 0
64 -82 -89 0
-55 -70 -79 0
-1 20 -78 0
50 80 -98 0
30 68 97 0
-68 -87 100 0
36 73 82 0
-11 -52 -54 0
-3 67 -96 0
-5 -31 -74 0
15 -20 -86 0
-43 -62 -84 0
-40 -91 92 0
44 61 69 0
-21 -72 -77 0
67 -86 94 0
-27 -82 -93 0
12 43 -78 0
37 49 72 0
-3 71 -74 0
3 16 68 0
-30 59 -78 0
20 -68 -80 0
-40 43 76 0
-44 -88 -90 0
-11 37 -54 0
32 -55 63 0
43 -54 -67 0
-11 -42 -81 0
-19 -20 -66 0
-15 37 50 0
11 64 -71 0
59 -65 -99 0
-26 -68 -79 0
-33 -35 50 0
22 -42 -77 0
-64 -67 -77 0
26 -47 80 0
19 -95 96 0
-14 92 98 0
-5 -19 67 0
-31 -46 -76 0
16 -41 -92 0
-23 54 77 0
20 28 -40 0
-10 -52 -74 0
-24 59 93 0
5 -9 -79 0
-9 -42 98 0
-36 -71 81 0
-69 83 87 0
19 42 -58 0
14 45 75 0
-29 -40 55 0
26 27 87 0
13 52 -54 0
-30 70 -71 0
52 77 -78 0
32 -48 62 0
6 11 79 0
-33 -53 91 0
-58 77 -97 0
-29 38 67 0
13 -36 -81 0
48 90 92 0
-10 95 98 0
-13 -61 -78 0
38 -71 -91 0
-33 92 94 0
24 -71 -80 0
3 -34 61 0
17 23 -28 0
-36 -62 68 0
-22 43 -95 0
12 -34 68 0
24 -76 -91 0
-2 41 88 0
-8 27 -48 0
48 76 93 0
-2 -74 90 0
-44 -49 55 0
-10 13 29 0
1 29 95 0
20 -28 76 0
31 -36 64 0
-29 -38 -54 0
-26 66 -67 0
-5 -24 33 0
-34 79 -95 0
53 -74 91 0
3 22 57 0
-11 13 77 0
-15 68 72 0
13 -36 -92 0
-37 65 91 0
55 -60 74 0
15 16 90 0
21 -27 96 0
-9 89 -93 0
1 15 -22 0
-37 60 -88 0
37 -51 92 0
40 -83 -85 0
-42 -48 51 0
-4 33 51 0
11 -17 53 0
3 -8 -73 0
-70 -73 78 0
17 39 -70 0
22 -86 -97 0
20 -73 90 0
-22 -49 81 0
-51 79 -90 0
31 32 90 0
20 -21 -47 0
20 43 -95 0
5 9 36 0
1 22 95 0
15 -61 79 0
-65 -68 92 0
39 -60 -94 0
12 17 -18 0
-61 -70 73 0
-32 66 -69 0
78 82 91 0
-21 -59 -90 0
20 -54 62 0
-61 -68 89 0
50 67 92 0
6 24 91 0
-48 53 71 0
-38 65 94 0
21 59 99 0
18 24 -93 0
-8 -25 -72 0
1 2 -87 0
-77 -78 79 0
-4 -28 52 0
4 32 -90 0
-52 63 -96 0
-36 -42 52 0
-12 36 -81 0
23 -46 61 0
-29 -90 92 0
82 86 100 0
-46 59 -84 0
-10 76 -95 0
36 47 -75 0
-3 -53 -80 0
-18 -46 87 0
17 47 77 0
-7 19 49 0
25 76 90 0
1 6 92 0
-10 -21 -38 0
-3 79 98 0
-31 -41 88 0
48 97 -100 0
-49 51 59 0
32 -88 91 0
-10 -32 44 0
-24 62 -82 0
-14 29 -71 0
-56 -95 -96 0
-41 -74 91 0
6 -25 -51 0
53 -82 84 0
-2 6 -96 0
5 12 75 0
-12 -55 -95 0
7 65 -73 0
7 38 81 0
-36 37 57 0
51 -54 -76 0
11 -14 93 0
-12 17 90 0
10 -33 73 0
37 -67 -95 0
-3 38 -41 0
19 20 28 0
6 30 -45 0
42 -68 87 0
-3 -51 -52 0
7 9 -86 0
48 -72 -89 0
-32 73 -86 0
19 33 36 0
37 53 81 0
28 -43 45 0
-6 -84 93 0
14 -34 72 0
1 3 -82 0
23 -41 -87 0
18 -48 58 0
26 -39 -91 0
41 -53 91 0
-41 45 -58 0
64 -96 -99 0
-17 60 82 0
52 -63 -75 0
9 -44 -72 0
-1 3 19 0
31 -71 77 0
32 -77 -83 0
40 46 -48 0
-34 -47 -86 0
-28 -68 81 0
-1 5 41 0
21 -39 -70 0
-9 32 -92 0
-17 19 -65 0
-1 7 -21 0
3 41 -77 0
15 -20 37 0
-23 -41 -49 0
19 -50 90 0
87 -91 -99 0
2 26 -78 0
25 -28 -63 0
-17 -62 85 0
58 62 84 0
28 37 -52 0
1 -10 -42 0
13 -77 -93 0
29 -52 -83 0
6 -29 -74 0
-31 62 -100 0
6 -17 66 0
-54 68 78 0
2 -8 -64 0
3 33 -75 0
12 14 29 0
-24 77 -99 0
-11 -50 -69 0
3 8 40 0
-10 -19 -66 0
7 -8 -44 0
34 38 -49 0
-14 -30 37 0
-7 78 -84 0
-33 89 90 0
10 13 -100 0
15 62 -78 0
-3 8 -82 0
-63 -86 97 0
38 -49 -56 0
1 -29 46 0
15 23 -93 0
-45 88 -90 0
-16 -74 82 0
9 11 -67 0
-11 -84 -90 0
-4 -52 84 0
38 53 71 0
-13 -45 -70 0
-25 50 -99 0
6 -54 84 0
-67 87 88 0
-40 62 94 0
-5 -61 -95 0
-10 -16 -56 0
-38 42 53 0
19 20 -44 0
18 -20 88 0
-16 24 65 0
-33 -41 -83 0
42 87 -90 0
29 -55 -73 0
-8 28 -94 0
-25 41 -62 0
-8 26 54 0
-69 85 -98 0
-23 45 -64 0
-17 31 -93 0
2 -11 -16 0
-35 -56 -97 0
-30 31 -97 0
-29 -67 74 0
34 45 92 0
-35 -68 77 0
-9 -66 79 0
-48 72 -83 0
10 25 37 0
10 -41 -52 0
3 -64 -66 0
24 -47 69 0
-23 34 77 0
-29 33 -62 0
-18 47 -62 0
-15 26 28 0
-19 -43 -74 0
7 29 -94 0
52 55 86 0
-17 48 -94 0
-31 -36 63 0
29 -61 -91 0
-30 41 86 0
-56 -86 98 0
13 -19 -91 0
-2 33 46 0
-49 -52 79 0

