c Generated by rand.py 75 375 3 195283
c Generator source: https://github.com/aaw/sat/blob/master/gen/rand.py
p cnf 75 375
-16 -69 -71 0
-4 21 -54 0
-36 -42 66 0
-4 22 60 0
9 -12 74 0
35 48 62 0
30 -39 63 0
-20 27 30 0
8 41 64 0
-32 -42 -49 0
-38 -42 -44 0
-40 -49 -72 0
-2 -3 -30 0
46 -57 65 0
-20 29 -53 0
4 -19 67 0
-16 37 49 0
31 -36 -65 0
-28 33 46 0
13 -44 52 0
4 -13 42 0
9 -43 -75 0
29 47 -60 0
12 -41 -71 0
-24 38 71 0
29 39 51 0
-18 -43 64 0
5 -24 -58 0
3 -22 67 0
-28 -42 62 0
5 -67 72 0
-16 62 -69 0
-22 61 68 0
-6 -12 -45 0
9 -28 39 0
-3 48 -72 0
-2 -19 66 0
-27 73 -75 0
-18 -58 -73 0
-6 20 -56 0
-15 -27 -71 0
26 36 -67 0
16 48 71 0
-20 52 -68 0
3 40 71 0
-26 43 44 0
31 -57 59 0
12 -65 73 0
13 -33 -44 0
-6 -39 -61 0
-30 42 -68 0
13 -24 -67 0
22 27 -51 0
14 27 34 0
-46 -58 -74 0
8 53 69 0
-22 41 58 0
29 -39 -52 0
-13 -39 -63 0
-10 49 -72 0
-40 44 74 0
17 -26 -70 0
25 -28 -67 0
-4 -61 72 0
7 -8 29 0
15 39 -73 0
-27 48 -61 0
24 33 -44 0
-5 -15 -43 0
-19 -39 61 0
53 59 -60 0
-4 -52 -70 0
40 45 68 0
14 31 67 0
-2 35 59 0
-26 -62 -69 0
8 55 67 0
-39 -59 -63 0
11 66 -75 0
-30 68 70 0
-1 41 -70 0
-11 -12 -73 0
-3 -13 -54 0
-5 51 -69 0
-6 19 67 0
23 29 44 0
-20 45 55 0
-8 -10 16 0
25 -31 60 0
3 -28 -56 0
-3 11 18 0
31 56 -71 0
31 33 64 0
17 -66 73 0
16 21 73 0
-16 -28 -59 0
37 -69 74 0
40 -51 64 0
40 -42 -49 0
14 -45 -70 0
10 40 -69 0
-5 -32 -58 0
7 -10 -71 0
4 60 -61 0
21 57 74 0
3 4 -37 0
7 -19 53 0
18 -20 51 0
-2 -15 16 0
-48 -50 56 0
-1 -6 69 0
-16 -63 68 0
-6 41 -65 0
-42 -47 48 0
-12 -57 67 0
-21 -35 45 0
8 25 -62 0
24 -72 74 0
9 49 62 0
-6 23 -39 0
60 69 -71 0
8 24 71 0
-5 -17 -55 0
-26 35 -61 0
15 -48 51 0
8 24 -42 0
7 -28 35 0
-49 -55 -69 0
4 -12 58 0
28 -57 64 0
9 -47 -73 0
1 -2 -65 0
13 51 55 0
17 -28 -63 0
8 -38 -68 0
58 -59 -73 0
-26 -64 69 0
2 -8 -55 0
-6 56 70 0
-3 47 -55 0
-43 55 71 0
47 -63 -70 0
11 -24 -72 0
-19 -42 -65 0
28 44 53 0
22 -50 67 0
16 -22 35 0
8 -14 49 0
-1 -42 44 0
8 -13 -15 0
22 -24 -69 0
-7 -32 50 0
41 48 50 0
-9 37 -66 0
-24 -43 75 0
-2 -12 16 0
-23 33 -71 0
27 49 -66 0
-5 -15 46 0
-25 26 -66 0
-1 2 -68 0
16 50 60 0
-19 -47 74 0
-49 -66 -72 0
42 -64 74 0
-7 24 62 0
-38 41 -44 0
-6 -33 47 0
-33 -36 -43 0
-46 57 71 0
17 -36 -46 0
-23 -29 -40 0
20 -28 52 0
-24 -26 -72 0
4 -35 36 0
-31 -52 -55 0
-13 -60 73 0
18 -51 -57 0
15 -18 -68 0
2 11 -64 0
-30 54 -69 0
-27 -65 75 0
15 27 69 0
35 -41 69 0
17 45 46 0
13 -19 -71 0
-42 45 69 0
-1 -50 -73 0
16 20 -22 0
-17 -46 -75 0
-5 25 -46 0
12 24 -74 0
8 23 33 0
18 -28 37 0
-27 -36 -43 0
10 38 54 0
-31 34 51 0
-22 35 -66 0
-9 19 -28 0
55 72 -74 0
-27 62 -75 0
2 -12 -17 0
25 31 -38 0
49 -55 74 0
1 29 68 0
-10 42 45 0
-3 38 -73 0
-26 -27 64 0
-48 -53 -70 0
19 -63 66 0
54 -58 61 0
35 50 69 0
-25 -27 -37 0
12 -14 20 0
-45 67 -71 0
8 -15 20 0
-11 -50 -52 0
12 -37 -66 0
25 -48 -73 0
2 -64 -75 0
9 46 50 0
19 21 66 0
-3 -34 67 0
16 -28 -35 0
9 11 27 0
-9 -11 59 0
13 68 72 0
-7 -45 -71 0
-17 -25 -72 0
-5 60 -67 0
-3 12 30 0
-7 35 48 0
10 46 -69 0
-28 -41 66 0
-8 48 -55 0
22 40 42 0
-29 36 -67 0
34 54 74 0
7 -47 72 0
-50 -56 -64 0
17 40 42 0
-26 36 44 0
-29 37 70 0
2 31 61 0
22 40 65 0
-5 25 -72 0
-68 -71 -72 0
38 48 55 0
16 36 68 0
-10 19 -37 0
-15 28 54 0
4 -18 53 0
-8 -23 54 0
-17 55 56 0
-16 -47 -48 0
-28 44 -60 0
-13 -48 -68 0
3 -22 27 0
-19 46 68 0
13 -48 -70 0
-28 -56 65 0
33 -47 63 0
-21 -61 -62 0
-18 48 50 0
-46 51 52 0
27 -47 -49 0
-10 -14 -65 0
-25 27 40 0
43 52 62 0
8 -34 73 0
48 -53 54 0
-23 26 -69 0
10 16 58 0
6 34 -38 0
-5 -44 70 0
-50 53 -64 0
-12 22 -61 0
16 -52 -53 0
-1 8 39 0
-11 -21 62 0
-22 52 61 0
-13 14 35 0
4 -10 -64 0
-2 -9 63 0
3 62 -73 0
-16 -39 45 0
3 23 50 0
8 26 45 0
-6 -60 -62 0
5 38 -47 0
38 69 75 0
-31 -39 56 0
3 -24 -71 0
-11 30 47 0
-10 -19 37 0
-6 17 39 0
-42 -47 49 0
-3 36 44 0
-6 14 50 0
-10 13 23 0
14 32 -74 0
4 -44 58 0
7 -28 69 0
12 -16 -31 0
-28 58 -62 0
-2 -17 -65 0
-14 -59 -66 0
-6 -57 -75 0
2 -33 56 0
-14 24 -61 0
32 -58 -67 0
-33 68 72 0
-5 -12 -42 0
-16 24 31 0
-3 8 -71 0
20 -52 56 0
-1 -24 -35 0
-19 38 -63 0
28 36 -69 0
-7 23 75 0
2 -59 -61 0
-4 24 62 0
9 -18 20 0
36 -49 65 0
-1 -24 68 0
20 -47 -63 0
44 72 74 0
-39 -55 73 0
-30 41 45 0
4 33 74 0
13 -30 31 0
-6 20 -64 0
-31 -53 -67 0
23 -42 -70 0
21 -52 -54 0
56 67 -74 0
-26 33 50 0
-14 -18 -36 0
9 58 68 0
-52 -61 -73 0
18 -33 -73 0
10 -63 67 0
9 33 -65 0
17 24 46 0
18 -29 54 0
16 -19 -72 0
12 23 33 0
3 -37 52 0
-27 42 -59 0
-36 -51 -57 0
15 -16 28 0
17 -24 -40 0
-9 37 56 0
13 34 -51 0
36 40 41 0
-37 38 45 0
-36 57 -63 0
13 42 -63 0
6 9 -46 0
-19 -20 31 0
12 -41 53 0
16 18 23 0
-15 30 -52 0
-18 -39 48 0
11 -48 -57 0
-4 -22 39 0
5 -26 -35 0
-11 -23 -69 0
-5 50 54 0
41 46 -59 0
-42 -56 74 0
-34 37 -75 0
24 34 43 0
-42 -44 67 0
-1 47 -60 0

