c Generated by rand.py 100 500 3 767362
c Generator source: https://github.com/aaw/sat/blob/master/gen/rand.py
p cnf 100 500
-13 -88 98 0
10 39 -54 0
23 53 63 0
-12 -24 -68 0
18 35 -84 0
48 82 96 0
18 -50 -54 0
-10 -58 -66 0
2 -44 53 0
11 16 -69 0
39 44 87 0
-43 -57 -69 0
9 57 -76 0
16 -25 -49 0
-39 54 95 0
-25 -54 -94 0
-13 -14 -53 0
4 13 46 0
-40 68 -70 0
-39 -67 85 0
-11 22 45 0
-30 46 61 0
24 69 97 0
16 59 96 0
-21 -22 -72 0
44 -52 -70 0
-4 31 66 0
13 -89 -90 0
24 44 51 0
5 60 -76 0
57 -67 -77 0
-14 -29 -42 0
1 7 22 0
19 21 74 0
-11 -65 -69 0
-48 65 -82 0
1 -4 -80 0
22 53 -77 0
15 -33 -66 0
4 52 -93 0
33 -59 61 0
-1 -21 39 0
-4 5 -49 0
-55 -62 88 0
-1 71 76 0
-2 -61 76 0
-12 38 52 0
-45 -59 65 0
-13 -16 -29 0
-36 38 84 0
24 53 -76 0
-15 47 -59 0
18 -42 -69 0
13 -61 80 0
-8 -20 55 0
-17 52 -81 0
21 36 -75 0
-1 -4 87 0
3 -62 -93 0
-60 61 97 0
14 44 45 0
-18 -68 91 0
44 82 98 0
16 84 -89 0
-42 -83 96 0
-34 -95 -100 0
-43 78 -90 0
51 -73 96 0
-1 86 -87 0
-45 -94 98 0
-34 67 -95 0
-7 -55 -79 0
42 -64 -86 0
80 -84 -98 0
-52 -73 -100 0
-10 47 48 0
-73 -84 91 0
2 -73 76 0
-17 83 -87 0
10 17 51 0
8 -15 86 0
29 49 92 0
27 -50 -78 0
-47 -48 -60 0
34 -57 71 0
-4 -21 52 0
24 71 -89 0
-7 57 -88 0
22 -33 47 0
13 29 58 0
-10 15 -67 0
28 -54 82 0
63 -73 -79 0
6 58 95 0
-10 -19 37 0
34 44 89 0
10 -19 -83 0
78 -84 96 0
-17 -48 49 0
37 -54 -59 0
-2 -58 -70 0
-23 -28 -38 0
22 -31 -84 0
65 78 -81 0
19 -23 75 0
7 51 56 0
12 -18 79 0
20 53 80 0
-43 -49 -79 0
-8 71 -89 0
2 30 35 0
-12 -59 88 0
18 -27 -55 0
-26 32 60 0
-1 -43 67 0
-14 -68 -69 0
-22 24 64 0
35 -51 89 0
2 45 51 0
7 -38 68 0
-3 44 99 0
11 51 -76 0
-24 -27 -86 0
-8 24 53 0
18 76 89 0
-29 -32 91 0
36 60 -96 0
7 -32 43 0
24 47 -97 0
38 77 -80 0
-26 32 -49 0
-18 67 99 0
56 -62 -100 0
-49 83 90 0
-32 -49 80 0
5 -31 -98 0
-31 -47 -72 0
14 -24 81 0
14 67 88 0
57 62 86 0
-3 -11 -24 0
-44 53 96 0
5 -22 85 0
-4 -10 62 0
31 58 97 0
58 84 91 0
-11 89 -95 0
23 -71 -98 0
-3 -72 -82 0
-36 -70 -77 0
53 -59 87 0
-13 65 -73 0
-51 97 100 0
34 65 99 0
35 -51 -60 0
-11 -83 -92 0
-10 81 91 0
-44 75 -83 0
-5 47 68 0
-66 80 83 0
-2 -13 29 0
85 86 98 0
5 -15 -26 0
-3 31 -47 0
22 -39 -78 0
3 30 -64 0
-18 -39 -51 0
-69 -89 -91 0
-12 -26 -33 0
3 32 92 0
-15 50 69 0
-27 -29 61 0
43 -49 75 0
47 -92 94 0
-16 -81 -97 0
3 8 21 0
16 27 -35 0
-10 -42 -60 0
32 70 -81 0
-24 30 64 0
4 -9 -53 0
-6 55 -90 0
-24 -65 -83 0
20 -56 -86 0
-6 -91 -96 0
-34 -85 -91 0
8 -31 -66 0
12 47 81 0
3 34 96 0
-64 -70 -71 0
3 -56 -88 0
9 16 -27 0
73 -76 -96 0
20 51 -58 0
11 -23 36 0
-9 19 47 0
32 -67 -86 0
-20 -31 -89 0
-42 -53 -86 0
57 75 99 0
-29 -36 78 0
-12 94 -96 0
-9 -56 97 0
-26 54 -85 0
-30 -38 60 0
-60 70 -79 0
-23 -66 -88 0
4 42 73 0
-27 54 -94 0
-9 -60 61 0
17 -40 -88 0
-22 -59 -96 0
15 63 -95 0
16 -20 -100 0
17 64 -98 0
-23 58 -68 0
25 77 90 0
37 38 75 0
-1 -41 -57 0
61 68 81 0
16 90 -99 0
5 13 38 0
13 -21 -95 0
-16 42 60 0
8 74 92 0
38 44 56 0
-5 -87 -91 0
-27 59 -86 0
12 24 -100 0
-30 -48 69 0
32 -97 99 0
-28 53 -58 0
-3 -26 89 0
23 64 68 0
-43 95 96 0
-9 71 -92 0
-42 -60 96 0
-9 -21 -50 0
-30 -70 -96 0
-30 -58 -92 0
18 24 -55 0
51 -56 92 0
14 61 -84 0
-6 -48 95 0
6 -53 63 0
73 -95 100 0
-8 -45 -82 0
17 -36 -58 0
-55 70 -82 0
-82 -91 99 0
23 30 54 0
-31 -41 -45 0
5 62 98 0
3 -47 -87 0
-36 -58 63 0
-14 49 -72 0
4 36 42 0
2 -13 95 0
22 -41 -50 0
17 66 85 0
39 86 92 0
16 -36 -41 0
-17 -21 22 0
1 56 -100 0
58 -65 88 0
11 -43 -86 0
10 -15 -46 0
-37 43 80 0
-17 79 93 0
-20 35 -68 0
-10 21 81 0
1 -15 -28 0
25 -49 53 0
19 -29 -60 0
-68 -82 -94 0
48 68 71 0
-1 80 -98 0
-29 62 -73 0
61 -83 -85 0
-7 -12 -31 0
31 53 63 0
2 -53 85 0
13 65 -68 0
-35 -46 83 0
-30 -41 -68 0
-67 -76 -98 0
88 -90 -99 0
34 85 98 0
22 -39 -82 0
-20 35 -58 0
-34 -48 -83 0
29 -62 86 0
4 50 52 0
35 -44 -67 0
42 -52 -90 0
-22 -27 32 0
32 44 -66 0
11 18 47 0
-11 64 100 0
-17 47 -65 0
-40 57 -94 0
-8 -30 37 0
-21 -32 -69 0
-13 -61 -87 0
-11 18 30 0
-10 -83 100 0
-13 -59 -85 0
-15 -66 -96 0
-13 -45 53 0
6 -22 69 0
41 66 -95 0
-14 19 54 0
17 -40 -46 0
15 -34 49 0
11 39 98 0
-14 -17 -55 0
-18 -90 -92 0
-10 93 97 0
15 -20 -64 0
5 75 96 0
-17 -40 -97 0
69 -81 83 0
8 -42 86 0
12 22 -84 0
-24 26 29 0
-26 -30 -85 0
-10 -27 62 0
27 60 -99 0
22 62 75 0
-5 -44 61 0
-1 34 -95 0
-3 11 -24 0
-25 65 -72 0
-8 -21 91 0
-13 15 85 0
58 -73 85 0
-32 -96 -99 0
39 -41 -93 0
-24 34 61 0
-3 32 -60 0
-62 -63 -78 0
-25 -35 -54 0
-56 -57 90 0
19 -43 72 0
-20 50 67 0
-13 79 -100 0
55 77 -87 0
-13 14 -53 0
-5 87 94 0
30 51 -79 0
-4 31 49 0
-18 -80 97 0
40 -79 98 0
38 -47 -48 0
26 40 99 0
19 -24 67 0
33 -77 87 0
-19 41 48 0
-53 78 88 0
-53 -55 83 0
-2 7 65 0
60 90 -97 0
-6 -55 -82 0
10 20 -22 0
27 -49 76 0
3 15 -16 0
-6 -11 -99 0
67 -81 82 0
-37 41 -93 0
6 -11 -58 0
34 74 -81 0
2 -24 84 0
-12 94 100 0
17 34 95 0
-14 -54 78 0
-6 59 70 0
-56 -63 -98 0
3 56 -73 0
-16 53 -75 0
-27 28 74 0
27 45 -83 0
-13 14 -19 0
38 -53 67 0
56 61 -80 0
-52 -59 -88 0
38 44 74 0
-37 39 68 0
11 50 -97 0
-31 -33 -34 0
-19 -34 51 0
-11 62 -78 0
8 61 -99 0
-36 -56 -67 0
32 -83 -97 0
-19 33 48 0
-36 -57 66 0
-42 43 86 0
3 -63 -100 0
22 26 45 0
51 -66 72 0
-63 -85 86 0
1 -17 -41 0
-35 -88 -92 0
-43 -56 70 0
71 -72 86 0
-59 -81 95 0
20 -54 -100 0
-44 79 95 0
-29 -76 82 0
77 79 85 0
-29 -43 -73 0
-13 59 83 0
-21 -34 -67 0
4 -9 -65 0
-46 67 -100 0
-35 -45 -92 0
76 78 87 0
15 -80 -100 0
-43 48 -93 0
19 29 84 0
9 86 100 0
47 55 -81 0
7 20 57 0
-61 96 -98 0
-11 -16 19 0
-43 -55 -72 0
-47 50 -63 0
12 20 24 0
-17 20 80 0
9 12 -84 0
-19 68 -90 0
-51 73 78 0
-24 -26 66 0
-30 84 -94 0
-15 -19 30 0
38 -42 67 0
-13 -27 -46 0
17 19 59 0
-6 -8 75 0
14 53 77 0
4 5 -92 0
31 81 -94 0
-21 -63 -74 0
-53 56 99 0
-26 -36 56 0
13 -49 84 0
-63 93 -98 0
37 39 -80 0
-35 -88 -89 0
-35 74 79 0
-1 12 64 0
-13 -46 61 0
-7 42 51 0
-38 45 -51 0
-20 -26 -55 0
-22 69 -78 0
23 -54 -82 0
-46 84 -96 0
37 74 -94 0
-47 54 -93 0
68 86 89 0
-4 32 -72 0
11 -72 -93 0
-62 -79 -83 0
-14 28 66 0
63 -65 84 0
-3 -14 -48 0
-27 -29 70 0
-16 30 -37 0
-6 -70 -98 0
-18 37 86 0
-34 43 -97 0
59 86 -88 0
-3 -19 -100 0
7 19 25 0
-3 5 63 0
43 -46 -48 0
-12 -24 49 0
38 70 89 0
-35 47 71 0
-25 44 -49 0
11 43 -98 0
-45 55 -67 0
33 77 78 0
51 -55 -57 0
-23 -70 91 0
12 49 59 0
-38 80 98 0
31 -43 -51 0
-33 49 55 0
-26 33 63 0
-16 -32 -95 0
-22 -32 -99 0
6 -15 100 0
-70 76 81 0
11 50 100 0
-42 -45 -94 0
9 19 53 0
-26 -59 73 0
-51 52 72 0

