c Generated by rand.py 75 375 3 587504
c Generator source: https://github.com/aaw/sat/blob/master/gen/rand.py
p cnf 75 375
-8 -29 46 0
-32 -37 55 0
12 64 -71 0
40 -51 -64 0
-9 -56 59 0
29 -46 -64 0
31 55 73 0
-27 41 49 0
55 57 -63 0
-28 -55 60 0
45 -60 62 0
5 -18 -36 0
-11 12 13 0
6 -7 -73 0
4 32 74 0
-2 -56 -66 0
6 -36 48 0
-25 -27 -31 0
44 -54 -68 0
-11 35 -71 0
-5 -17 -35 0
3 -6 39 0
27 -67 -74 0
-35 39 -44 0
5 22 -46 0
-32 58 -71 0
8 -39 -47 0
-1 54 73 0
-19 56 72 0
53 -61 73 0
-58 72 -73 0
-20 -32 -64 0
6 54 -61 0
3 -12 -14 0
-49 52 65 0
8 14 -68 0
5 -37 -41 0
-19 59 -60 0
-27 29 -41 0
-16 -37 70 0
-2 -10 -23 0
19 -22 60 0
-12 -67 68 0
18 55 72 0
-27 40 46 0
15 52 -63 0
20 -25 37 0
-16 55 -72 0
-20 -35 -64 0
-8 14 60 0
-19 -21 -64 0
2 -65 -71 0
-17 42 45 0
-4 17 62 0
27 -29 -71 0
-44 -51 69 0
55 -56 66 0
5 42 57 0
-23 34 -74 0
16 -41 42 0
11 -48 -55 0
14 -42 -44 0
15 -28 -69 0
-8 -14 -33 0
13 23 52 0
4 49 61 0
10 24 57 0
4 -23 48 0
-29 -39 70 0
3 -41 66 0
18 -42 66 0
13 51 58 0
-19 55 -62 0
25 30 -54 0
26 53 -70 0
16 46 50 0
21 -51 -67 0
59 60 -74 0
-62 -64 66 0
-14 19 -52 0
6 -13 -44 0
-10 -28 36 0
13 -38 -70 0
14 58 64 0
-11 22 27 0
-2 -32 -42 0
47 -58 74 0
24 -35 -42 0
28 56 -62 0
8 -59 67 0
-15 -26 57 0
8 -45 47 0
-16 -60 70 0
-21 37 -73 0
25 -36 -50 0
15 36 57 0
21 55 71 0
21 -35 -58 0
-2 15 51 0
45 -57 68 0
30 -33 47 0
-26 -38 49 0
-33 40 -44 0
-61 -62 67 0
-4 58 75 0
38 -65 68 0
-4 36 -55 0
-35 36 59 0
-39 45 -58 0
40 51 -52 0
-2 42 64 0
3 29 -37 0
21 -51 -61 0
23 49 -67 0
29 48 -53 0
16 -66 73 0
-25 36 38 0
-3 -48 -62 0
23 47 67 0
-31 -36 45 0
-32 52 66 0
-12 41 42 0
-14 44 61 0
28 -36 67 0
-60 -65 -66 0
10 26 -54 0
8 -50 63 0
-14 59 71 0
-3 6 62 0
3 28 -52 0
-3 6 -51 0
32 50 -56 0
39 57 64 0
45 -60 63 0
-32 49 53 0
8 -31 60 0
13 -57 -75 0
-20 27 70 0
-4 -5 29 0
-9 36 56 0
22 -45 -74 0
-5 -7 52 0
18 -27 53 0
13 -36 74 0
-1 2 63 0
3 59 -75 0
-12 -46 -65 0
-18 -38 52 0
-13 -15 -25 0
-8 -47 65 0
15 55 62 0
-35 -43 -63 0
29 36 74 0
-45 -49 -56 0
-24 41 -56 0
5 44 -70 0
15 -42 60 0
36 -41 45 0
8 19 -49 0
-2 -11 75 0
-32 36 63 0
-36 -61 -72 0
-15 -16 38 0
15 -26 44 0
-9 19 49 0
-41 49 60 0
5 -40 64 0
39 55 58 0
-4 -27 -69 0
2 -6 71 0
-39 55 -58 0
8 -13 -58 0
-4 41 -69 0
1 13 45 0
-25 -29 31 0
33 -53 -71 0
-10 -23 35 0
6 -53 59 0
10 23 55 0
-30 43 55 0
3 -25 46 0
-22 -24 31 0
5 -45 -71 0
-14 -53 55 0
21 -30 67 0
-26 -43 70 0
5 -38 47 0
6 -52 69 0
-2 -27 -47 0
-50 -61 66 0
-35 -53 75 0
18 -36 -42 0
8 -51 -70 0
-21 40 -56 0
32 48 63 0
-10 -23 30 0
25 41 -52 0
10 53 61 0
-14 45 60 0
-12 -13 -14 0
21 30 60 0
5 -22 70 0
-28 -67 -71 0
-18 24 31 0
21 -44 -51 0
19 34 -66 0
-44 -46 -68 0
10 21 -34 0
-10 17 43 0
25 -56 -60 0
36 54 -65 0
27 -40 59 0
-9 22 -33 0
34 -36 -56 0
-38 -55 64 0
-39 -71 74 0
-10 15 74 0
40 -47 -48 0
10 72 73 0
-7 -28 -49 0
13 -49 -54 0
-29 -57 64 0
-10 -49 -72 0
-2 -34 59 0
29 -47 57 0
-17 -56 64 0
36 56 -74 0
-14 -54 70 0
-12 -40 -45 0
12 -43 -59 0
-19 36 -48 0
-3 -37 73 0
-11 -27 -56 0
30 -41 64 0
-34 -65 -74 0
-5 54 55 0
21 -52 -66 0
4 11 -67 0
-10 27 47 0
-3 -27 -56 0
22 -24 27 0
-5 -45 -63 0
-50 58 -73 0
-44 49 57 0
-27 -54 61 0
33 39 52 0
-6 28 46 0
-20 30 -72 0
50 -57 70 0
15 -68 73 0
17 -29 33 0
13 -35 45 0
29 42 -70 0
3 -64 74 0
-12 -13 -53 0
-2 23 65 0
-6 -12 29 0
-13 -31 49 0
-50 -53 68 0
-18 -25 -31 0
19 33 40 0
34 64 69 0
18 43 -52 0
-27 30 62 0
14 -22 31 0
38 43 61 0
-31 41 58 0
3 17 63 0
13 23 42 0
-8 48 68 0
-10 -33 36 0
2 -3 58 0
-14 -21 63 0
13 30 35 0
20 33 70 0
-6 23 -73 0
29 49 65 0
-16 47 74 0
35 42 -62 0
-43 -60 70 0
21 -33 50 0
-14 -18 -43 0
17 -21 29 0
14 27 -31 0
-7 -37 67 0
-42 70 -72 0
-26 -40 -71 0
-1 -10 33 0
1 40 -56 0
-20 31 52 0
-3 -16 36 0
-13 -43 57 0
-11 -49 50 0
54 -72 75 0
-14 -18 -44 0
3 -55 -65 0
18 -23 -27 0
-17 -40 42 0
9 -21 56 0
44 45 47 0
-11 23 -63 0
2 23 39 0
2 -14 70 0
44 52 -73 0
19 -50 74 0
-16 -49 74 0
10 27 -28 0
-15 -46 47 0
35 49 52 0
-14 -19 -32 0
-13 -37 -53 0
20 52 -74 0
-19 45 49 0
-4 24 -25 0
-7 15 60 0
3 36 52 0
-24 -55 67 0
-29 40 -64 0
58 -61 64 0
-36 -59 75 0
-25 57 -67 0
-43 48 63 0
-13 18 28 0
27 -41 68 0
-18 31 59 0
-20 41 -55 0
23 54 -72 0
-16 -18 36 0
4 -20 67 0
47 66 74 0
-11 31 43 0
-23 24 49 0
-4 -19 -32 0
-6 -24 69 0
1 17 25 0
3 -50 -57 0
-1 46 -58 0
-18 -48 57 0
-3 18 33 0
-7 27 29 0
43 48 -60 0
15 -51 -57 0
-3 31 -35 0
30 67 -72 0
30 -41 -55 0
7 20 -56 0
-40 -43 69 0
-17 -39 -74 0
21 24 72 0
6 8 42 0
12 45 -63 0
-29 67 -69 0
24 64 75 0
-7 39 51 0
-8 -23 -47 0
-15 -46 65 0
3 4 -48 0
55 -63 70 0
-62 69 -72 0
12 -21 -55 0
48 -55 63 0
5 -20 64 0
-55 -67 73 0
-27 -53 71 0
-34 60 -68 0
-34 52 72 0
19 -26 58 0
22 -69 -75 0
36 -61 -73 0
-10 -19 62 0
2 -54 64 0
13 20 -57 0
-30 -64 65 0
-2 24 44 0
-20 66 -69 0

