c Generated by rand.py 50 250 3 369377
c Generator source: https://github.com/aaw/sat/blob/master/gen/rand.py
p cnf 50 250
-35 -37 -46 0
1 -9 23 0
26 -33 -46 0
8 -34 38 0
-24 28 -42 0
14 -15 40 0
-21 25 50 0
-19 41 -42 0
-19 -31 -39 0
-3 -6 33 0
9 -42 50 0
-5 -27 29 0
16 25 -40 0
-15 -35 -42 0
-6 -14 25 0
5 9 37 0
12 -23 -33 0
-2 -27 -36 0
7 -27 -32 0
5 19 22 0
11 -13 50 0
1 12 -50 0
25 -36 -40 0
2 3 27 0
19 21 -33 0
-21 28 40 0
-7 19 38 0
2 39 -48 0
23 25 43 0
-6 36 -37 0
-42 43 46 0
2 -10 -31 0
-12 -22 28 0
-7 48 -49 0
14 29 40 0
-15 -24 31 0
11 -12 28 0
6 24 -33 0
-39 40 44 0
1 -2 -8 0
-6 7 -26 0
31 -39 47 0
-6 -11 -44 0
-24 25 44 0
-30 37 -40 0
-6 28 47 0
-3 47 48 0
3 -25 -29 0
12 21 -22 0
-12 22 42 0
12 -17 -19 0
8 -16 44 0
-7 9 13 0
37 39 -42 0
11 36 -49 0
-30 -41 44 0
8 11 -18 0
10 -17 -40 0
-1 22 44 0
-28 30 -48 0
-9 -31 34 0
-3 -14 23 0
-20 -36 49 0
16 24 26 0
23 28 -47 0
-5 -19 21 0
-11 25 -40 0
17 -40 49 0
-10 -29 43 0
25 -28 -36 0
-26 38 -50 0
8 -20 -28 0
-2 -6 33 0
8 -13 -22 0
24 41 -50 0
-14 17 31 0
-1 -33 42 0
16 30 40 0
6 -14 -45 0
-1 21 36 0
-7 -33 -41 0
9 30 -42 0
18 -34 -43 0
-5 -6 30 0
-8 -35 44 0
6 25 -35 0
2 -16 -24 0
7 12 17 0
-28 -39 40 0
22 31 -47 0
19 -24 -25 0
-1 31 -36 0
-2 -21 -34 0
-8 -18 -28 0
-4 -22 46 0
17 -19 37 0
20 31 -37 0
6 12 -31 0
-6 33 -48 0
-4 6 -47 0
13 23 -46 0
10 44 -47 0
16 44 46 0
-15 30 -50 0
1 -6 -10 0
6 -30 33 0
22 -35 38 0
-7 -36 -37 0
8 43 -44 0
-6 -7 -8 0
-10 17 -21 0
1 -33 36 0
-4 7 10 0
-2 -7 12 0
-2 16 40 0
1 21 -33 0
-15 30 -31 0
-3 -10 -22 0
-12 -40 50 0
7 -12 -17 0
-6 17 39 0
6 -25 40 0
-1 -18 -25 0
-1 -2 -47 0
-1 -3 -44 0
10 12 18 0
25 -31 -34 0
3 7 41 0
-7 -24 -36 0
8 13 34 0
3 6 -38 0
4 21 50 0
-14 -38 -44 0
-3 -16 20 0
-4 11 -22 0
7 -13 -28 0
1 30 31 0
-4 -23 -28 0
-1 5 -18 0
-8 19 -49 0
4 -8 -38 0
24 29 -35 0
40 -42 -46 0
15 17 -36 0
-14 -16 27 0
-15 20 -31 0
-4 33 -36 0
-16 32 -33 0
-34 38 45 0
9 -38 -50 0
11 13 28 0
-11 -46 50 0
-26 -29 35 0
9 -35 47 0
5 -15 34 0
-19 27 28 0
8 12 38 0
16 -37 44 0
-4 33 -50 0
-27 -40 43 0
-45 -46 -47 0
-44 46 47 0
-13 19 45 0
-7 -34 -48 0
-7 16 -28 0
26 -29 -36 0
-15 28 -38 0
-28 34 39 0
-34 -44 -47 0
-14 34 -38 0
17 24 50 0
25 41 49 0
-2 29 43 0
-19 -21 -23 0
-4 22 -44 0
4 -35 -38 0
-18 21 -22 0
-29 -37 -49 0
5 -21 -47 0
-3 -17 -39 0
-8 22 -28 0
14 16 -26 0
3 18 -20 0
-22 25 36 0
-13 28 -50 0
-10 22 -27 0
21 25 50 0
5 40 -48 0
10 -22 -47 0
-23 -28 44 0
-4 33 44 0
13 19 34 0
12 -25 48 0
-3 35 44 0
24 43 45 0
-5 -7 42 0
2 -16 38 0
8 35 42 0
-1 -16 -45 0
-10 12 16 0
23 26 -31 0
9 -22 -35 0
-6 8 49 0
-4 9 37 0
3 -7 26 0
20 28 -34 0
-9 34 49 0
1 -9 -13 0
-4 36 -50 0
16 -23 -42 0
-2 42 44 0
8 18 45 0
18 26 -49 0
-15 27 -35 0
-6 13 -45 0
10 -43 48 0
20 31 40 0
20 -26 40 0
8 16 -39 0
-9 -39 47 0
7 9 45 0
8 22 37 0
6 -7 9 0
-11 13 20 0
1 41 47 0
11 -32 -36 0
35 -46 50 0
2 -41 -50 0
6 -11 25 0
2 -28 46 0
26 -28 37 0
8 -39 -41 0
-4 -10 38 0
-15 -25 -33 0
25 -35 50 0
7 -29 -48 0
-8 24 -44 0
14 -26 44 0
12 33 -42 0
27 -37 -38 0
42 45 -46 0
13 16 37 0
-15 23 -36 0
-6 -19 36 0
-10 -32 45 0
-20 31 49 0
9 33 47 0
-5 -22 34 0
6 -15 16 0
-7 31 48 0

