c Generated by rand.py 50 250 3 847968
c Generator source: https://github.com/aaw/sat/blob/master/gen/rand.py
p cnf 50 250
4 -29 45 0
-5 15 -50 0
-37 46 -47 0
26 -31 -45 0
16 -37 -44 0
-12 -15 -35 0
-13 -23 -47 0
-20 -34 48 0
-7 29 -32 0
-4 -35 36 0
10 -21 38 0
17 26 -49 0
-16 18 -46 0
28 30 -41 0
-7 13 -33 0
12 35 -37 0
29 -38 45 0
-21 48 -49 0
-22 40 -42 0
14 20 31 0
-13 -32 35 0
16 19 20 0
4 36 -38 0
14 -27 45 0
-3 23 28 0
-12 -16 -22 0
-14 36 -41 0
33 40 -48 0
-5 9 -45 0
2 -12 -25 0
-5 20 48 0
-4 -29 50 0
-17 -19 39 0
-13 -25 -41 0
16 -38 -39 0
3 -16 18 0
13 -15 21 0
3 -9 -24 0
4 -10 -37 0
-33 -37 45 0
-11 28 -43 0
-12 21 -50 0
-11 -23 -37 0
-1 18 -50 0
-3 -20 24 0
41 43 45 0
3 35 36 0
-4 19 -44 0
19 -25 -50 0
-13 -18 -46 0
6 36 -41 0
-7 34 47 0
-5 32 -49 0
-1 7 27 0
22 -24 -35 0
33 46 -50 0
-14 38 47 0
14 18 -32 0
-27 -46 -50 0
30 37 -45 0
15 -17 23 0
5 -27 -40 0
-2 6 -49 0
-3 -27 28 0
6 -23 -25 0
17 24 -31 0
-10 -30 -37 0
-4 15 -48 0
-1 4 -29 0
4 25 -31 0
8 19 48 0
7 -17 47 0
14 17 -26 0
-9 -10 -42 0
2 26 38 0
15 27 -48 0
-20 22 -48 0
-6 -40 42 0
-29 -47 -48 0
1 -15 37 0
-32 46 47 0
27 -31 34 0
-2 14 -44 0
26 -39 -47 0
-4 21 -27 0
11 -21 48 0
-10 -34 47 0
7 -14 37 0
-3 -22 -49 0
-8 27 37 0
20 -21 32 0
14 -21 38 0
-1 -8 -40 0
32 -36 50 0
-5 25 38 0
-2 -7 49 0
-12 -14 42 0
-15 -21 44 0
15 18 32 0
5 -24 27 0
-23 31 -38 0
-2 -24 -40 0
2 -27 49 0
17 24 -41 0
12 -22 -39 0
22 -36 -45 0
-12 -30 38 0
-20 33 -36 0
-31 43 -46 0
10 -13 -33 0
6 -33 47 0
-3 -20 -50 0
-1 9 -19 0
-1 -25 37 0
-5 -11 32 0
36 -38 -39 0
17 -27 -46 0
22 23 -31 0
18 -32 48 0
7 18 48 0
20 34 -49 0
15 -25 -35 0
36 45 -50 0
-10 15 39 0
-1 -4 33 0
-14 39 -45 0
4 -13 -30 0
-13 24 -41 0
-5 19 50 0
9 -24 29 0
-1 -7 -22 0
12 -23 -42 0
-5 30 -36 0
-12 -18 41 0
17 18 -30 0
22 42 -44 0
-3 -18 -32 0
25 44 49 0
-11 19 -26 0
-1 21 36 0
6 22 -33 0
-11 21 -47 0
26 -27 33 0
-8 9 -22 0
-10 26 -30 0
13 -22 44 0
-2 31 32 0
7 -8 -38 0
-28 33 36 0
18 26 31 0
-5 -17 31 0
-5 -22 26 0
6 45 46 0
4 12 -45 0
-27 -30 49 0
18 27 28 0
28 -37 40 0
-32 -40 -45 0
-21 -25 -30 0
-14 15 24 0
-32 35 -39 0
-1 15 -33 0
1 -43 45 0
8 15 42 0
3 -13 -35 0
6 7 40 0
12 16 47 0
-8 39 44 0
-7 12 16 0
-4 13 -38 0
-5 -11 -14 0
-19 20 -44 0
13 -14 34 0
6 -32 41 0
-24 -35 40 0
-1 3 -44 0
1 -30 41 0
2 -29 39 0
3 -21 35 0
26 33 41 0
16 -39 40 0
10 31 38 0
-8 13 -33 0
9 -41 -43 0
27 -45 50 0
3 -12 -46 0
7 23 39 0
-24 -29 -32 0
-10 -14 -47 0
-12 23 47 0
-2 22 40 0
32 -40 49 0
-10 11 45 0
9 -15 -31 0
5 -10 34 0
12 -21 48 0
6 -20 -28 0
9 29 44 0
-1 -8 13 0
15 -26 -34 0
20 -31 -35 0
-5 -8 29 0
9 -34 40 0
4 24 25 0
-2 21 41 0
28 -33 37 0
8 -41 49 0
5 30 -32 0
22 -24 36 0
-3 -20 27 0
4 -15 38 0
20 -31 36 0
8 -28 -49 0
12 -20 -24 0
20 -34 47 0
7 11 26 0
4 21 29 0
14 27 45 0
-5 36 -41 0
28 31 -50 0
-33 40 43 0
8 -36 -39 0
-16 22 -31 0
-13 -37 -46 0
9 -39 45 0
-20 -31 -46 0
10 14 -44 0
-18 30 32 0
-3 17 -21 0
-24 33 46 0
18 32 -42 0
-3 27 -34 0
20 -31 32 0
4 23 -36 0
11 -15 44 0
-5 -17 -44 0
1 8 -18 0
-22 33 49 0
-19 -30 -46 0
6 19 -50 0
-17 47 -48 0
6 13 35 0
21 22 37 0
-17 -30 45 0
6 -19 -49 0
-3 23 -37 0
-7 39 49 0
-7 -31 -32 0
-12 15 -43 0
-1 -45 -47 0

