c Generated by rand.py 75 375 3 944825
c Generator source: https://github.com/aaw/sat/blob/master/gen/rand.py
p cnf 75 375
-28 -42 -61 0
-7 17 -38 0
18 -46 68 0
15 -54 -75 0
-26 46 -64 0
21 29 45 0
-4 36 -42 0
-21 -33 -43 0
45 -60 -69 0
6 46 -53 0
-7 22 64 0
26 38 57 0
-3 51 -67 0
-12 -44 -49 0
-29 48 -62 0
13 31 71 0
-21 -22 32 0
-24 -39 55 0
5 40 -49 0
26 59 75 0
-1 35 -62 0
-21 -25 53 0
22 42 -66 0
-3 4 -28 0
7 16 -44 0
24 -64 -70 0
26 32 58 0
-47 -62 -69 0
-54 -57 72 0
-5 -27 -40 0
-3 -52 75 0
-33 36 67 0
14 -15 41 0
-16 18 34 0
-26 -31 -62 0
43 -59 61 0
-32 -50 -65 0
19 -33 65 0
-18 -22 64 0
-22 -37 48 0
-17 58 -60 0
-41 -72 75 0
-4 -48 68 0
37 43 -65 0
-24 69 71 0
-13 -41 -61 0
1 12 14 0
-42 -43 -55 0
10 34 -70 0
-45 -66 69 0
36 -39 62 0
8 -19 51 0
-36 -58 -60 0
-18 -38 -54 0
-6 -36 73 0
-20 35 -47 0
-8 -66 75 0
-2 -9 18 0
12 -27 -56 0
4 -10 -52 0
-13 20 38 0
7 49 -68 0
29 -36 -49 0
32 -34 -42 0
21 -57 -62 0
14 -31 -62 0
7 35 63 0
25 -60 -63 0
6 36 -67 0
20 22 68 0
39 41 -66 0
26 -32 -57 0
19 -34 45 0
-13 40 -49 0
11 12 48 0
9 -19 63 0
-17 -30 44 0
-41 -50 58 0
-10 14 50 0
-6 7 56 0
41 -44 50 0
-29 34 44 0
5 25 -57 0
-20 66 -69 0
43 -58 65 0
21 49 57 0
5 -57 -70 0
39 40 42 0
9 25 66 0
2 -12 45 0
32 34 55 0
56 -61 68 0
-5 -13 35 0
8 -17 21 0
-4 -23 33 0
-3 -23 -73 0
38 43 -58 0
-10 63 74 0
30 45 58 0
-19 -52 -63 0
10 23 -31 0
-27 -58 71 0
-5 49 74 0
11 -18 -34 0
11 67 68 0
-15 -44 45 0
29 58 -61 0
-39 -50 51 0
-4 20 74 0
-28 42 -56 0
-10 33 -34 0
-16 20 66 0
7 13 -25 0
-15 -29 -51 0
3 11 -19 0
36 61 -66 0
28 -41 48 0
20 24 -38 0
37 -39 -43 0
3 -7 70 0
-14 -31 -32 0
17 53 60 0
-22 -71 74 0
9 20 50 0
46 -50 57 0
13 23 38 0
-11 62 -64 0
-1 -45 -57 0
-27 28 -54 0
6 -21 42 0
-10 -52 62 0
-23 -44 50 0
3 -6 18 0
18 28 -51 0
1 3 39 0
-15 18 57 0
-14 -46 49 0
-24 51 64 0
-6 -23 -41 0
-3 -8 38 0
7 12 18 0
12 -21 -60 0
-12 15 -48 0
-15 -38 -41 0
24 -30 -31 0
-20 -52 -53 0
24 -48 -68 0
-14 24 69 0
-20 -24 -27 0
-27 -42 73 0
6 -8 -69 0
-10 65 74 0
15 -54 64 0
12 -46 75 0
23 46 52 0
4 -6 -7 0
-26 -45 -61 0
9 37 -62 0
-2 4 37 0
-24 -35 52 0
5 -39 -56 0
-40 -50 -70 0
-31 -40 75 0
-40 -55 -62 0
-5 8 -36 0
19 -30 36 0
14 16 72 0
-18 -58 62 0
-17 41 64 0
18 36 63 0
-2 7 -29 0
-46 -71 75 0
-34 -64 69 0
-1 22 -47 0
19 43 -52 0
-7 40 54 0
55 -57 -70 0
-4 63 -73 0
12 -33 53 0
30 -69 -72 0
-14 17 -71 0
43 52 -66 0
-1 23 63 0
-39 40 75 0
-50 -65 72 0
-22 -61 -62 0
-44 45 -52 0
-5 -45 -51 0
-38 -45 74 0
-10 11 -38 0
6 16 69 0
-17 -69 -73 0
-41 -53 -56 0
44 50 57 0
10 -14 -37 0
-10 -33 -43 0
-32 -70 -71 0
-7 -49 73 0
-10 -41 -54 0
4 -14 45 0
-24 -46 -54 0
27 51 -69 0
18 -53 56 0
-40 42 -61 0
29 -34 61 0
10 14 -57 0
-16 25 54 0
40 -49 -52 0
-7 48 52 0
-4 -19 -29 0
23 32 62 0
-14 -24 74 0
26 -30 -65 0
-27 44 -71 0
-21 -46 -59 0
6 32 -41 0
-11 -65 69 0
25 35 52 0
24 46 72 0
-34 46 -58 0
6 -55 -63 0
5 13 -52 0
30 -35 70 0
3 6 -65 0
13 -45 -59 0
35 -38 43 0
3 -47 -66 0
-24 -60 -69 0
-1 17 20 0
-6 18 53 0
-3 45 -54 0
-6 -27 -33 0
7 -9 -43 0
28 -42 -70 0
5 14 -66 0
-8 41 -51 0
29 30 -53 0
-2 12 33 0
1 -66 68 0
-52 -61 -66 0
10 25 70 0
20 42 53 0
19 26 -67 0
-3 -44 -45 0
49 67 -72 0
-12 18 -64 0
-19 -36 51 0
32 33 36 0
25 -57 -69 0
18 -40 73 0
-61 -67 74 0
14 -26 -32 0
5 -43 52 0
11 26 -53 0
31 37 -50 0
-35 40 73 0
-45 50 -71 0
-29 50 -55 0
-17 -34 62 0
15 22 -55 0
-39 50 74 0
1 -18 47 0
3 -43 70 0
7 30 -74 0
9 15 -17 0
-8 -29 -35 0
-42 -58 61 0
-5 -50 57 0
13 -25 68 0
-13 -19 -44 0
-14 -31 -52 0
-21 -53 63 0
50 -62 73 0
-12 -45 67 0
24 -43 49 0
19 58 -60 0
-22 44 73 0
-4 31 66 0
-7 62 -70 0
-25 -34 -63 0
3 -20 75 0
6 30 -73 0
29 58 61 0
4 73 -75 0
-22 25 -26 0
4 49 54 0
14 -20 27 0
44 -49 -66 0
-26 -38 58 0
43 -52 58 0
-17 60 -64 0
28 -31 -54 0
6 18 -21 0
13 17 27 0
-42 56 -67 0
-20 45 -56 0
-42 45 56 0
-20 -57 -63 0
6 26 61 0
19 -58 -70 0
-58 -69 70 0
2 13 -70 0
24 -53 -67 0
26 -32 33 0
10 -19 46 0
20 -33 36 0
25 39 52 0
-7 -32 41 0
26 29 43 0
4 -30 -44 0
11 -39 43 0
-15 -48 51 0
22 -39 -47 0
4 6 54 0
-30 58 -68 0
19 -20 -65 0
1 17 72 0
-8 11 65 0
-2 6 13 0
24 -29 57 0
-36 -72 -73 0
-3 -35 59 0
19 -39 50 0
21 38 60 0
10 -33 64 0
2 -23 43 0
-9 12 74 0
-23 -30 -59 0
23 27 -74 0
-40 47 -52 0
-3 -43 -57 0
31 -39 -50 0
-2 14 73 0
15 38 56 0
56 60 65 0
-22 64 68 0
-1 -56 68 0
-7 -28 50 0
13 15 51 0
-6 -25 28 0
8 -26 -60 0
-13 -18 -64 0
-38 56 -57 0
-13 -50 -70 0
19 -58 61 0
-32 -37 51 0
26 -73 -75 0
-52 -63 -72 0
2 3 38 0
-10 -66 -69 0
1 12 42 0
53 55 56 0
34 57 -71 0
40 73 75 0
27 35 -49 0
-4 -7 -40 0
32 64 70 0
-23 33 42 0
-13 -40 -72 0
42 -56 61 0
-25 65 74 0
27 -52 -57 0
5 -12 44 0
62 -67 68 0
19 41 -71 0
-18 -38 49 0
46 -54 63 0
-12 67 69 0
-5 54 56 0
-1 -44 73 0
29 39 -54 0
4 17 -25 0
-22 -44 74 0
21 -27 71 0
-3 5 36 0

