c Generated by rand.py 100 500 3 634003
c Generator source: https://github.com/aaw/sat/blob/master/gen/rand.py
p cnf 100 500
-3 21 28 0
20 48 -100 0
-27 68 -99 0
-33 -43 65 0
45 -59 -86 0
-75 88 96 0
15 25 -95 0
7 36 -89 0
-42 -53 -71 0
13 -14 -48 0
-19 31 -90 0
39 -69 94 0
5 18 -87 0
51 -83 -86 0
-82 87 -97 0
16 -29 77 0
30 58 -100 0
-47 -51 95 0
-19 39 74 0
12 44 -63 0
29 31 54 0
-38 -63 90 0
28 -30 54 0
14 -75 -87 0
-61 95 -96 0
11 67 -99 0
-24 74 75 0
-4 -21 60 0
-1 11 -78 0
8 55 -94 0
-11 30 47 0
-2 -9 -68 0
81 84 -97 0
-3 11 -63 0
-14 -32 68 0
-32 -49 64 0
-26 -62 -63 0
-21 64 98 0
9 -17 46 0
29 48 -79 0
18 40 55 0
-16 24 82 0
6 43 89 0
-6 -11 61 0
2 -17 -98 0
-1 31 -100 0
26 43 -78 0
-5 79 92 0
22 29 -46 0
55 -59 -99 0
16 27 -48 0
-38 -71 -72 0
13 -49 -65 0
75 -77 -94 0
-40 73 89 0
11 15 -58 0
31 58 75 0
1 -23 74 0
-6 -61 -95 0
29 -69 -82 0
15 22 86 0
-28 65 -69 0
-43 46 61 0
35 73 -91 0
-71 80 -85 0
2 38 -52 0
4 -64 -97 0
-17 38 69 0
-5 29 -94 0
1 -66 -99 0
33 71 -98 0
-1 -74 97 0
-17 -76 97 0
10 34 93 0
-12 42 89 0
-51 61 74 0
-7 31 45 0
37 -54 -78 0
16 -30 -98 0
62 86 98 0
42 -74 85 0
-50 72 -87 0
-15 30 -46 0
12 -69 70 0
1 -2 27 0
-48 53 61 0
63 -91 -99 0
9 12 52 0
33 -44 -84 0
-37 -48 90 0
-16 55 78 0
-14 -51 -75 0
21 68 91 0
-76 -92 95 0
8 -82 88 0
-74 85 96 0
3 43 -75 0
56 62 66 0
15 26 -88 0
-1 32 -77 0
-2 16 47 0
26 49 98 0
-12 -62 86 0
-82 92 -94 0
39 -43 71 0
2 -39 -68 0
-7 -37 -74 0
19 41 80 0
-20 61 83 0
-14 -52 64 0
-41 -54 -74 0
-62 -84 89 0
28 -72 -76 0
-12 23 74 0
-11 30 -63 0
-25 51 -83 0
-6 66 -94 0
-3 10 -47 0
-2 -52 -100 0
12 -13 -19 0
-11 -57 -77 0
-14 54 78 0
5 -74 97 0
-40 62 -80 0
-59 -78 100 0
-31 83 -86 0
-48 -73 96 0
6 17 -19 0
-16 75 87 0
-22 30 70 0
-2 -51 -85 0
12 71 90 0
-16 45 -96 0
-16 19 -39 0
-29 73 -87 0
-14 -15 -22 0
-28 -60 -90 0
-14 15 -57 0
7 -22 -94 0
22 54 -79 0
-36 47 75 0
-50 75 81 0
45 94 98 0
-8 51 71 0
19 38 40 0
-10 -53 78 0
-19 -80 91 0
5 -50 52 0
-5 27 -69 0
-12 -34 99 0
-37 57 -84 0
51 61 66 0
-2 -6 -100 0
-25 -38 -44 0
-42 -75 -95 0
-28 -38 -94 0
-22 35 -86 0
8 -54 -94 0
-8 18 87 0
30 -48 91 0
-1 -61 -89 0
12 18 -28 0
3 -31 -46 0
-59 67 90 0
6 -21 -83 0
-24 -45 -86 0
-23 26 -56 0
32 -65 -89 0
20 46 -88 0
-9 15 34 0
43 81 95 0
42 -68 -92 0
44 -69 -74 0
-24 48 49 0
5 -53 -60 0
63 -85 91 0
19 -78 93 0
-8 54 -68 0
32 48 50 0
35 -64 95 0
11 16 -48 0
-43 -84 -86 0
-17 -70 -98 0
11 27 60 0
-5 -14 87 0
19 57 -98 0
-3 -41 -80 0
12 -32 -100 0
4 -38 95 0
20 60 -98 0
-7 -82 94 0
9 64 70 0
-15 18 57 0
-33 56 79 0
11 12 51 0
30 36 55 0
48 -54 93 0
-1 -71 74 0
18 -44 -99 0
-38 -68 -98 0
21 -29 -87 0
28 57 -93 0
-13 -64 -87 0
45 -86 -95 0
-58 -91 -96 0
9 67 89 0
-27 -63 89 0
12 -30 91 0
-1 5 -29 0
-4 13 -94 0
-20 45 -77 0
-13 -25 99 0
12 40 74 0
-44 47 55 0
-40 -69 85 0
-36 -60 83 0
-28 57 66 0
-12 -16 -33 0
-15 24 -81 0
3 -19 42 0
12 59 -67 0
-19 62 63 0
-54 -62 67 0
44 79 98 0
19 -52 -80 0
-6 79 90 0
-19 91 97 0
54 -67 -69 0
2 -42 57 0
-11 -37 41 0
-15 88 -89 0
5 -12 64 0
-1 32 64 0
60 -80 -94 0
-9 21 82 0
-7 -33 41 0
46 -47 -52 0
37 -57 -81 0
-83 -88 -100 0
3 51 -85 0
-48 56 91 0
15 17 -64 0
2 -23 37 0
12 -52 -89 0
27 62 -68 0
-41 60 -70 0
-6 -23 -90 0
12 25 47 0
31 -88 99 0
-13 55 -78 0
-8 -27 45 0
38 49 -60 0
22 -32 74 0
4 5 -66 0
-61 77 -90 0
19 -38 72 0
-10 40 -67 0
4 -91 -99 0
7 30 43 0
8 60 78 0
16 19 32 0
-14 -58 -99 0
-4 40 -47 0
1 -18 24 0
-43 49 94 0
-30 74 83 0
-12 -47 -91 0
54 -56 72 0
-13 -44 46 0
-42 -45 80 0
6 -56 -65 0
-24 60 -81 0
30 -59 -91 0
-32 37 54 0
5 -9 40 0
-1 30 -51 0
-12 -56 -72 0
57 61 -71 0
10 46 -84 0
29 -61 -91 0
5 30 -74 0
62 85 -99 0
12 -21 -70 0
-68 85 -99 0
-3 -25 82 0
-31 64 -88 0
20 68 70 0
1 -3 95 0
-9 -40 76 0
7 54 99 0
-62 63 -65 0
-7 -70 78 0
28 40 44 0
7 36 -77 0
-50 69 84 0
-61 -71 -75 0
22 36 -88 0
35 65 83 0
-19 53 -82 0
-19 66 -81 0
-11 53 -64 0
17 -34 77 0
14 -21 -68 0
-17 -35 80 0
-5 25 44 0
-25 26 82 0
21 -70 79 0
-21 -63 -78 0
-5 54 -61 0
-13 70 -77 0
-6 -23 76 0
36 44 78 0
1 -44 -81 0
10 -31 -34 0
58 75 -78 0
5 26 31 0
-15 22 -71 0
-14 -52 54 0
-7 19 47 0
5 8 -38 0
43 -71 -88 0
-8 -30 43 0
10 20 -36 0
8 75 -100 0
38 -51 -96 0
-6 78 -79 0
44 56 72 0
-33 41 -99 0
40 -51 87 0
-18 24 34 0
59 -93 -98 0
8 -41 79 0
36 46 -98 0
49 52 -64 0
-11 62 88 0
48 64 98 0
-16 17 98 0
-15 -69 92 0
1 -60 96 0
-27 -29 50 0
-26 -64 -89 0
8 -36 -70 0
-9 -16 50 0
-29 -82 95 0
5 -11 -72 0
-7 -27 76 0
45 -74 -76 0
35 -42 94 0
-12 -39 -81 0
-25 -50 -64 0
60 72 75 0
46 -72 -85 0
31 -57 75 0
-9 71 82 0
-25 -43 -71 0
-69 73 80 0
5 7 46 0
16 43 51 0
-35 39 82 0
13 32 37 0
-35 -91 99 0
-30 -63 93 0
-48 -58 94 0
-17 47 -49 0
46 -49 -79 0
32 -42 -47 0
-33 49 -77 0
-4 52 67 0
-32 -83 86 0
-23 -81 97 0
9 -70 -79 0
27 31 -68 0
-17 60 -66 0
-4 -51 -55 0
3 -6 44 0
-39 51 77 0
-28 -36 54 0
-46 53 -83 0
16 51 64 0
69 -92 93 0
27 -28 -42 0
-13 -27 -88 0
38 52 -71 0
-19 -79 -90 0
2 82 83 0
16 29 65 0
10 72 -77 0
-23 33 34 0
4 7 12 0
27 53 -59 0
54 86 88 0
-15 33 57 0
18 -64 99 0
12 -66 80 0
26 41 89 0
-12 81 -91 0
9 -20 -80 0
20 25 -33 0
-34 68 69 0
-30 -68 -87 0
25 40 -90 0
-12 37 99 0
4 24 -38 0
38 -92 97 0
61 77 -95 0
63 86 94 0
6 -23 40 0
-27 -33 -93 0
-21 38 85 0
5 52 -93 0
-31 51 84 0
4 -36 89 0
3 -50 88 0
-51 -54 89 0
-8 41 -85 0
49 -56 72 0
26 31 -32 0
37 79 -90 0
5 -57 95 0
15 -24 88 0
7 -34 86 0
80 -81 -89 0
-25 65 100 0
-4 -56 95 0
14 33 96 0
-47 -51 -95 0
-2 9 -42 0
50 -68 75 0
32 58 72 0
-7 69 -73 0
-26 48 -86 0
8 -36 -49 0
-12 85 -94 0
-38 -46 93 0
18 33 99 0
9 -71 -82 0
-47 -88 -91 0
12 -74 81 0
62 -89 -91 0
-2 43 -84 0
-2 62 -72 0
-53 -92 -93 0
-5 28 -77 0
-36 -75 90 0
-12 -35 62 0
-21 54 -83 0
-26 61 -72 0
-36 81 -85 0
-16 42 85 0
-31 -44 -64 0
23 49 -86 0
20 27 -69 0
-13 14 66 0
59 -75 -82 0
41 -80 -84 0
-48 69 72 0
-66 91 92 0
60 -66 86 0
-43 55 -91 0
37 48 -59 0
12 -38 -58 0
-38 70 83 0
39 44 79 0
-11 24 34 0
-9 97 -100 0
-14 -45 57 0
31 65 -87 0
-8 18 -86 0
55 -76 91 0
-54 -67 -82 0
40 46 -62 0
-6 45 85 0
-29 -60 68 0
8 -21 95 0
-28 -71 94 0
31 -54 -94 0
-33 -52 -78 0
21 61 95 0
-17 38 -92 0
4 39 80 0
53 -81 100 0
-13 -40 -95 0
-26 -62 73 0
-31 -38 -60 0
10 23 74 0
19 65 76 0
70 72 -86 0
30 -39 89 0
73 78 97 0
59 69 -96 0
12 61 64 0
20 -34 94 0
-21 -24 81 0
31 -74 -94 0
64 76 100 0
-12 -25 36 0
-20 -50 53 0
-8 -16 -27 0
-22 -47 -54 0
-3 -21 -30 0

