c Generated by rand.py 50 250 3 915697
c Generator source: https://github.com/aaw/sat/blob/master/gen/rand.py
p cnf 50 250
-14 -23 -34 0
17 -33 -36 0
12 28 -50 0
-14 26 38 0
-32 34 38 0
42 -44 -47 0
23 -30 40 0
-16 -18 19 0
-9 23 -46 0
-16 -27 -47 0
17 -18 -36 0
34 -38 50 0
-2 -25 -34 0
-19 -21 -50 0
6 -7 -49 0
-6 -13 42 0
-27 -45 49 0
25 -31 -35 0
11 20 -34 0
-41 47 -49 0
-22 30 47 0
37 -41 49 0
-23 -27 -29 0
14 -16 -20 0
-16 20 36 0
-10 12 -15 0
1 -5 34 0
1 -6 48 0
-18 25 31 0
-11 -32 39 0
7 -29 -43 0
-3 -20 -25 0
-1 32 37 0
13 15 19 0
9 15 47 0
7 -35 -41 0
1 -37 45 0
-4 -32 -33 0
-10 18 43 0
-21 28 44 0
1 4 6 0
18 21 -30 0
24 -40 -42 0
-3 9 -31 0
-9 -15 24 0
-3 7 -43 0
23 32 -49 0
28 -39 43 0
-20 23 -30 0
3 -39 43 0
20 -35 39 0
-3 23 -48 0
20 23 47 0
-6 -29 46 0
12 26 47 0
19 24 50 0
6 -12 -26 0
-44 48 50 0
-1 -10 26 0
-14 -33 -41 0
-22 -28 -46 0
-10 40 -46 0
36 -38 48 0
5 13 -23 0
8 36 40 0
15 -21 -45 0
21 29 -42 0
17 -42 43 0
6 44 -49 0
18 23 -42 0
-8 -22 -38 0
10 27 45 0
11 30 -34 0
1 -37 -46 0
2 8 42 0
4 11 -44 0
5 -23 27 0
-2 33 -45 0
13 35 -45 0
-43 44 -48 0
-34 -44 49 0
16 28 -35 0
-2 -32 37 0
12 -33 -46 0
-7 28 32 0
11 -16 -41 0
-2 4 -50 0
9 -43 44 0
-1 26 43 0
-5 38 -46 0
11 39 46 0
-26 32 33 0
-6 -16 -50 0
-9 -46 -48 0
-8 -34 39 0
10 46 48 0
6 -41 -45 0
22 -26 37 0
22 26 -32 0
-9 -26 38 0
17 18 -25 0
-24 -34 47 0
-17 41 -47 0
27 -37 40 0
-6 17 -46 0
17 -24 37 0
5 -46 50 0
-7 -12 44 0
-23 -24 -38 0
7 20 -29 0
8 30 -47 0
-19 27 -37 0
-3 13 27 0
-15 -26 50 0
4 -41 47 0
2 -4 -11 0
-28 34 -48 0
9 18 -50 0
15 -41 -43 0
1 -3 46 0
2 3 -22 0
20 30 -36 0
-1 11 -44 0
-5 14 26 0
-13 21 -23 0
-14 36 -46 0
35 -45 49 0
23 -38 40 0
9 -17 -29 0
19 -22 -30 0
8 -29 39 0
-29 -48 50 0
-3 -4 -35 0
25 -31 36 0
6 -23 40 0
-8 12 26 0
2 19 -30 0
6 -33 -37 0
3 12 23 0
23 28 49 0
-19 22 -26 0
-6 -31 -40 0
6 21 -43 0
-7 -36 49 0
-12 25 28 0
-17 -27 44 0
-6 20 29 0
15 -16 -32 0
-3 10 18 0
20 32 42 0
14 21 -24 0
3 -16 50 0
26 40 -46 0
9 -12 45 0
-23 31 40 0
-13 -21 26 0
7 24 -37 0
18 35 41 0
3 10 48 0
-9 27 -40 0
3 -28 42 0
-16 28 30 0
-5 17 45 0
1 -7 -32 0
-16 33 -37 0
8 -20 43 0
6 15 -34 0
-20 -26 -33 0
4 13 -28 0
-19 23 46 0
23 -36 -42 0
4 14 -31 0
-4 -17 -32 0
9 -16 37 0
-5 10 -41 0
-2 -25 47 0
4 20 39 0
16 25 36 0
4 -21 -35 0
-9 -10 17 0
-25 30 50 0
-2 18 44 0
-13 34 -41 0
-10 41 -44 0
-21 46 -50 0
29 30 -34 0
15 17 -37 0
10 14 -29 0
-3 -31 -50 0
2 22 -37 0
16 23 -45 0
18 35 47 0
-14 -34 -49 0
11 -28 30 0
-17 -22 -31 0
18 -33 45 0
-5 32 46 0
13 20 -24 0
-1 8 -13 0
-16 45 -48 0
27 33 43 0
15 -20 -44 0
14 -23 -27 0
-8 -24 -33 0
-14 23 45 0
-26 -31 42 0
-2 -8 50 0
-10 11 -41 0
-3 24 -46 0
-20 -31 -32 0
-21 -36 46 0
-21 25 40 0
-2 -4 49 0
-2 14 35 0
19 -38 45 0
-19 -21 27 0
17 -20 39 0
4 -19 38 0
5 -14 50 0
1 7 -46 0
28 -32 -46 0
-12 -14 30 0
2 -33 50 0
6 -43 -45 0
12 24 37 0
16 -26 -31 0
15 -29 -31 0
-4 -44 -48 0
32 -34 40 0
3 9 40 0
-18 -19 -44 0
15 25 -43 0
-3 5 -38 0
-1 11 29 0
-1 38 -45 0
1 -3 -10 0
-17 32 40 0
-3 18 -29 0
-1 -19 32 0
-14 17 -25 0
7 23 -40 0
-22 27 -42 0
11 -26 27 0
11 -35 49 0
11 -36 50 0
25 -29 -44 0
1 15 -46 0
-8 15 36 0
-11 -19 28 0
-19 -26 49 0

