c Generated by rand.py 50 250 3 539587
c Generator source: https://github.com/aaw/sat/blob/master/gen/rand.py
p cnf 50 250
5 -11 26 0
2 30 43 0
-7 -17 -50 0
13 15 -20 0
1 -11 -26 0
1 -17 -36 0
-11 18 -40 0
14 -35 46 0
-4 31 -34 0
4 -9 -24 0
16 -27 -36 0
-21 -35 -42 0
9 -21 34 0
17 -33 -48 0
12 14 47 0
16 -17 -24 0
4 -5 -49 0
-5 -39 -47 0
-24 26 31 0
-2 9 15 0
-37 43 44 0
12 -27 43 0
-9 -11 -43 0
9 -38 -46 0
-2 17 -48 0
3 36 -41 0
-22 26 -37 0
44 -48 49 0
-7 24 -25 0
-4 -22 44 0
-29 34 -50 0
-8 -22 32 0
23 -36 -37 0
5 -6 10 0
-36 -46 50 0
18 -24 -45 0
29 30 -31 0
20 21 24 0
6 -14 34 0
-5 23 -48 0
30 -38 -46 0
7 17 47 0
3 37 -39 0
-27 -28 50 0
1 -8 -22 0
8 31 37 0
-16 32 -46 0
-1 38 43 0
13 38 46 0
11 -23 43 0
-11 -12 -44 0
-15 17 22 0
-12 -13 23 0
-13 33 42 0
-4 -40 50 0
-6 -38 50 0
-28 30 33 0
-6 36 41 0
13 33 47 0
2 15 -42 0
-9 22 -26 0
-13 -16 -47 0
-15 -19 32 0
-12 21 -25 0
15 -18 48 0
-4 12 -31 0
-8 -9 -23 0
-7 -13 -45 0
-36 -39 -45 0
14 26 -27 0
7 15 -24 0
-5 -7 -46 0
2 41 -50 0
14 -18 31 0
5 -14 -41 0
5 -28 -49 0
-27 39 41 0
2 -4 -18 0
9 23 27 0
8 9 42 0
14 45 -48 0
-10 -11 -30 0
-39 40 -41 0
4 -22 -30 0
12 -26 -34 0
-1 -11 -30 0
-16 -34 36 0
-10 26 -49 0
-2 -4 -32 0
8 17 -28 0
18 24 44 0
-9 -14 -49 0
23 27 -50 0
-19 -24 -37 0
8 -15 -43 0
29 -30 -45 0
-22 45 48 0
-21 41 -47 0
-15 39 -49 0
-4 -11 -15 0
-11 -34 -43 0
-1 21 -49 0
-21 -25 48 0
-6 -7 -13 0
13 47 -48 0
-13 -16 26 0
-17 28 -45 0
19 29 -31 0
-2 21 -45 0
9 22 -42 0
10 -20 29 0
4 33 -49 0
17 24 -40 0
7 -39 50 0
18 -24 32 0
-6 -35 36 0
-15 -22 33 0
13 -18 44 0
18 -20 -35 0
14 -26 -45 0
27 -41 49 0
-11 22 -32 0
-3 -14 28 0
-3 -25 45 0
1 -4 -48 0
-12 21 30 0
-18 44 45 0
-30 34 -46 0
-24 -27 -38 0
-8 -35 48 0
23 -35 43 0
1 -18 -21 0
6 26 31 0
-4 -21 -48 0
-9 -31 42 0
-2 4 -22 0
15 -28 -49 0
4 44 -48 0
2 9 31 0
2 10 -18 0
31 -32 -34 0
15 45 50 0
13 -16 37 0
-26 -27 -49 0
-4 14 44 0
13 32 43 0
-10 -21 31 0
-17 -36 40 0
-18 39 49 0
11 33 45 0
-4 16 45 0
-6 35 -41 0
6 25 28 0
-38 41 -43 0
12 -38 -48 0
13 34 49 0
-14 16 25 0
-7 12 17 0
17 -18 46 0
-16 -18 -19 0
-12 -17 -28 0
-6 18 33 0
17 -30 47 0
-5 -8 9 0
-4 29 -31 0
9 -19 -29 0
14 23 37 0
-20 -48 -50 0
-7 28 -43 0
-28 -45 -46 0
28 -33 34 0
-8 17 -43 0
-20 -26 -32 0
-4 11 -29 0
31 45 46 0
1 6 -49 0
18 -34 38 0
4 17 26 0
25 -41 42 0
-14 -21 46 0
8 28 50 0
-8 -18 27 0
-15 -34 -47 0
-28 -41 -48 0
-10 -23 -41 0
5 -33 -42 0
23 -27 -28 0
-26 27 36 0
-25 35 -38 0
13 -40 43 0
1 -6 -39 0
7 34 -42 0
-27 -35 46 0
-22 47 -48 0
-3 15 23 0
24 -36 -40 0
2 7 42 0
13 24 -33 0
3 7 30 0
-6 -37 42 0
-14 -16 24 0
-10 35 -48 0
-2 21 -33 0
-1 20 -33 0
-7 -8 -41 0
5 20 -21 0
-3 -11 40 0
-1 5 -27 0
-20 -41 48 0
-9 -32 40 0
3 -45 46 0
-4 -38 43 0
5 8 -17 0
-16 37 49 0
22 23 -36 0
13 20 -28 0
-7 -9 21 0
-2 -12 40 0
25 -33 -48 0
-21 36 50 0
21 -37 40 0
9 15 -38 0
-7 -10 39 0
-9 32 -44 0
-17 -20 45 0
12 27 -43 0
-24 -38 40 0
-32 42 49 0
-2 -15 43 0
-4 -26 -38 0
-18 20 -34 0
-11 -28 -35 0
-7 11 -34 0
11 -40 45 0
16 -25 35 0
4 -8 20 0
4 29 45 0
-11 26 47 0
-7 -16 -43 0
26 -29 -42 0
-17 -22 32 0
-12 28 -38 0
7 21 -43 0
16 -23 -28 0
20 28 30 0
1 18 23 0
-3 18 31 0
-15 24 -42 0
-10 -23 34 0
17 33 38 0

