c Generated by rand.py 100 500 3 968837
c Generator source: https://github.com/aaw/sat/blob/master/gen/rand.py
p cnf 100 500
20 40 45 0
25 -79 -84 0
-20 -34 51 0
-1 84 -98 0
4 -11 98 0
57 -60 -78 0
21 69 88 0
4 59 94 0
-24 34 54 0
-13 38 -68 0
7 -24 34 0
8 -16 -24 0
15 20 -82 0
36 -46 57 0
-43 -73 -91 0
7 10 66 0
-6 60 -76 0
20 -79 94 0
-34 -40 70 0
5 -8 67 0
-47 97 -98 0
87 93 -95 0
-13 44 59 0
-51 56 -96 0
19 74 82 0
-9 -73 97 0
30 -32 -54 0
17 26 -30 0
-34 -39 95 0
73 -84 93 0
7 -18 -57 0
-11 -52 64 0
-21 47 -52 0
40 59 -70 0
53 -56 -61 0
-27 42 -56 0
-14 -81 -100 0
10 60 -63 0
27 57 -65 0
29 59 76 0
31 64 73 0
-12 40 -73 0
-23 30 -84 0
-49 90 96 0
-29 52 70 0
-16 51 75 0
8 13 -94 0
29 -31 71 0
9 -73 -74 0
6 51 -91 0
7 13 -86 0
-31 91 -99 0
8 -10 60 0
-70 96 -100 0
20 57 58 0
-10 24 30 0
10 -13 86 0
25 -64 91 0
-16 31 -49 0
74 87 100 0
-11 46 64 0
1 -6 25 0
11 -22 -52 0
-10 -12 -40 0
-7 -36 71 0
24 -36 -52 0
36 -47 -71 0
-21 44 -94 0
-10 -52 -73 0
66 73 -78 0
-29 90 93 0
4 74 90 0
38 60 -75 0
-14 -40 -85 0
-37 -60 -91 0
-4 -51 -64 0
5 -22 30 0
22 31 78 0
-21 -28 -57 0
10 38 93 0
30 59 75 0
10 32 42 0
16 91 -94 0
-4 9 16 0
-13 -19 -56 0
41 56 88 0
-15 58 90 0
-33 67 -84 0
2 -85 -88 0
34 37 69 0
-26 -39 -95 0
-83 -89 96 0
-8 24 34 0
54 78 80 0
-21 22 37 0
58 -64 -95 0
45 68 69 0
24 32 55 0
20 -39 65 0
25 -52 -91 0
4 23 100 0
-4 49 54 0
-20 -50 81 0
-74 75 95 0
39 -47 -77 0
-20 -21 33 0
19 34 -48 0
-45 -98 -100 0
30 76 -96 0
-20 -68 -94 0
-20 69 98 0
-1 -75 76 0
18 22 48 0
53 -57 79 0
20 -77 -99 0
-38 55 -74 0
49 -77 -78 0
58 69 96 0
-13 51 -71 0
23 37 93 0
-3 39 -79 0
-10 13 74 0
12 -28 56 0
-46 75 -77 0
4 -15 -41 0
45 85 -90 0
21 54 80 0
-3 64 -76 0
-2 45 -59 0
11 17 -60 0
-33 48 -93 0
-26 -60 -67 0
-26 -35 71 0
31 88 -97 0
12 26 -63 0
-41 -81 -89 0
21 -63 -73 0
-37 -41 -52 0
-3 28 -52 0
3 47 -99 0
-7 -78 94 0
38 47 -67 0
6 31 -80 0
9 -42 83 0
-3 -23 -44 0
-16 -24 -31 0
-36 63 99 0
6 -14 16 0
3 -36 -98 0
52 -86 95 0
-25 -33 49 0
63 -73 -88 0
-15 65 82 0
30 -90 -93 0
61 -72 85 0
38 -42 49 0
24 -44 77 0
-14 -18 70 0
13 41 45 0
-3 -48 -75 0
-35 61 75 0
34 40 64 0
52 -80 85 0
-12 64 78 0
4 -65 94 0
26 51 89 0
60 64 71 0
48 87 98 0
-1 -21 -52 0
-67 76 77 0
-16 35 -49 0
-38 -73 83 0
-17 -44 -68 0
-6 33 -69 0
-10 -52 -90 0
-12 38 93 0
-27 -64 95 0
29 -45 -91 0
-8 -94 -100 0
-24 -87 -100 0
20 -80 87 0
51 -65 -66 0
-8 -18 53 0
37 41 -60 0
-30 -56 67 0
-26 -81 -95 0
-22 -23 -25 0
8 29 56 0
-6 -33 70 0
14 -30 -63 0
15 -39 55 0
-45 71 91 0
36 -46 -72 0
31 -47 71 0
-29 54 91 0
-35 81 -93 0
-1 -31 -92 0
-9 14 41 0
1 74 -80 0
23 -40 75 0
16 -35 53 0
-41 64 -87 0
-2 35 -74 0
-2 12 40 0
-1 4 -99 0
21 47 51 0
-26 -38 75 0
13 -31 69 0
44 67 -84 0
2 -9 33 0
7 22 33 0
17 -57 -70 0
-5 22 -90 0
-5 -54 59 0
6 59 -95 0
-41 -49 80 0
26 -88 -99 0
1 47 99 0
28 47 82 0
-21 -50 -94 0
64 -72 -83 0
82 97 -100 0
21 -44 -57 0
-9 -13 -16 0
-8 -40 45 0
9 15 -18 0
-29 -62 -72 0
20 -21 93 0
-10 -14 95 0
10 28 -37 0
37 57 -74 0
-33 40 -43 0
-53 -84 99 0
9 30 78 0
8 15 61 0
-10 91 96 0
11 71 81 0
24 -27 -90 0
-3 14 89 0
-51 -63 -98 0
11 24 90 0
-3 13 57 0
26 -51 71 0
23 -68 -99 0
-23 -40 97 0
-26 -31 70 0
-2 -22 38 0
13 33 -81 0
-67 70 -95 0
-52 -60 73 0
41 -54 56 0
-9 69 -94 0
28 -93 96 0
5 27 -49 0
-16 42 -69 0
-28 39 -69 0
-39 81 -92 0
2 -76 -77 0
-79 -91 -95 0
28 32 -49 0
-15 45 -61 0
-71 82 -83 0
-47 -51 -54 0
62 -68 94 0
6 -26 -58 0
-32 -69 95 0
25 28 31 0
3 27 -28 0
34 45 -84 0
-82 -88 99 0
19 25 -67 0
-11 -45 98 0
68 -77 -82 0
43 50 -58 0
23 30 55 0
-11 12 15 0
4 -36 66 0
17 42 -44 0
12 51 85 0
37 -52 59 0
6 24 50 0
-64 -73 -88 0
21 32 -35 0
-53 61 -81 0
14 66 -84 0
48 -66 78 0
51 -67 -76 0
-9 28 96 0
55 -75 -86 0
36 -54 72 0
-23 -41 88 0
22 -53 -83 0
60 -70 -98 0
10 56 -86 0
-29 -57 -100 0
25 40 -75 0
44 -58 -99 0
47 80 -87 0
12 76 82 0
-17 20 34 0
43 -59 -79 0
-22 27 91 0
-14 -39 46 0
40 43 99 0
10 13 -59 0
-16 23 -48 0
-27 58 79 0
-31 -61 95 0
4 66 -79 0
-32 -57 -60 0
-20 -73 76 0
-9 69 -93 0
28 66 95 0
-17 -36 -45 0
64 86 -100 0
-39 55 -78 0
-14 26 -98 0
-15 -64 -74 0
53 -86 100 0
-41 43 -80 0
11 -17 50 0
17 -22 -34 0
-41 57 -60 0
26 -67 -83 0
-14 -81 -88 0
20 40 75 0
24 -62 -70 0
8 -21 -89 0
-6 -12 -40 0
-2 -75 100 0
4 -27 -54 0
-27 -45 -97 0
-18 -46 -92 0
-25 37 54 0
-20 -32 -100 0
83 93 95 0
-58 78 -95 0
3 -33 82 0
4 -5 15 0
-30 -95 -98 0
15 43 90 0
-5 73 99 0
-14 -22 -39 0
9 47 -68 0
-7 32 43 0
22 -65 81 0
29 45 87 0
-40 -69 98 0
2 26 33 0
-18 25 -38 0
-40 -66 -88 0
3 -21 -79 0
-1 12 -14 0
46 53 -61 0
7 -24 -43 0
27 -44 87 0
11 35 58 0
17 40 -41 0
24 -32 -84 0
2 27 35 0
-13 79 99 0
39 -45 -63 0
6 26 -32 0
18 31 93 0
-16 -27 29 0
-21 74 96 0
21 46 -64 0
-22 65 -84 0
11 19 -84 0
-18 74 94 0
-17 22 79 0
-34 -59 70 0
-47 73 -89 0
-12 29 -98 0
-19 -52 94 0
-24 33 -35 0
4 -56 -72 0
8 -15 85 0
-34 -47 90 0
11 37 88 0
25 -26 -37 0
12 -51 -92 0
8 -19 -24 0
-13 -33 -65 0
37 -65 -97 0
-31 -60 -78 0
3 37 55 0
-10 72 92 0
-33 39 -58 0
-3 -24 -31 0
-29 -76 95 0
6 13 94 0
-26 -75 -82 0
-13 -28 -56 0
42 -58 -69 0
-32 -51 91 0
-6 18 -80 0
2 67 75 0
29 44 96 0
-45 57 85 0
-65 66 88 0
12 23 -46 0
-3 -42 64 0
39 -59 -73 0
4 46 -58 0
9 16 -43 0
33 -34 38 0
-50 -76 -92 0
33 57 80 0
68 77 -100 0
17 78 99 0
17 -35 57 0
54 -56 -98 0
-13 28 43 0
-38 55 66 0
-17 -62 71 0
28 85 -96 0
-55 85 -96 0
-17 33 -41 0
7 49 -75 0
1 14 95 0
-31 54 83 0
-1 61 68 0
-13 31 -81 0
32 -45 -94 0
4 -41 51 0
-28 38 -68 0
-44 57 -61 0
-23 32 -40 0
-10 -69 -80 0
-7 57 95 0
6 -16 83 0
30 36 80 0
-6 21 -82 0
-42 66 69 0
-18 57 -100 0
-21 -29 99 0
4 -58 96 0
23 -49 -76 0
-8 -68 -79 0
17 31 -54 0
9 -23 30 0
-24 39 53 0
1 48 -96 0
4 11 12 0
36 -38 93 0
-19 41 54 0
35 46 51 0
30 74 -92 0
10 -29 -41 0
-29 36 41 0
7 -22 -69 0
-77 84 -91 0
-7 73 -91 0
-3 25 -41 0
22 -36 -60 0
34 36 45 0
36 74 -84 0
-2 -31 -47 0
15 74 -78 0
-9 -32 -96 0
28 73 77 0
-72 79 -96 0
-25 84 94 0
65 72 -78 0
5 -15 38 0
-21 -56 -66 0
22 61 79 0
-37 -77 -99 0
1 -17 -70 0
-10 -38 70 0
-2 13 68 0
-2 -65 81 0
-5 20 -52 0
24 -64 -69 0
47 78 -98 0
39 67 -75 0
-23 31 -51 0
4 -62 -68 0
44 65 76 0
-35 -43 -71 0
30 -64 88 0
-57 80 88 0
-1 8 -59 0
4 -68 86 0
4 -9 -72 0
23 32 48 0
34 -75 -99 0
4 -47 57 0
-9 44 -92 0
23 25 -57 0
-18 86 98 0
-68 82 87 0
66 94 -95 0
-4 21 22 0
-15 -60 -76 0
45 78 -90 0
-22 -23 77 0
6 65 -100 0
-49 68 -85 0

