c Generated by rand.py 50 250 3 934245
c Generator source: https://github.com/aaw/sat/blob/master/gen/rand.py
p cnf 50 250
-4 -13 50 0
16 17 32 0
-3 22 -34 0
18 -32 41 0
5 -23 -26 0
21 25 -49 0
-3 -42 -48 0
26 32 36 0
-13 -19 -50 0
4 -27 28 0
-20 -40 46 0
27 38 -39 0
-17 29 -49 0
-22 35 37 0
-37 -38 -45 0
-18 39 -44 0
-3 18 22 0
-5 20 43 0
-16 30 -49 0
25 -28 -45 0
-7 34 36 0
6 -26 -29 0
26 36 -41 0
-13 39 -44 0
1 -4 -36 0
-37 45 -49 0
-16 -22 38 0
15 19 -37 0
7 18 37 0
10 -16 -26 0
-6 11 38 0
-3 -14 22 0
5 43 49 0
2 37 50 0
-4 12 13 0
7 -16 -19 0
-27 -41 -46 0
15 17 26 0
-1 -11 -43 0
-25 -27 38 0
5 -9 -48 0
14 -24 -27 0
16 30 -43 0
-15 25 -49 0
14 -32 38 0
-33 39 -44 0
27 43 -49 0
-8 -13 32 0
1 -17 37 0
-18 -39 45 0
2 -40 -49 0
14 -16 43 0
4 24 38 0
2 -26 -43 0
7 -9 30 0
-20 27 -39 0
2 8 -35 0
-33 -39 -45 0
5 23 -48 0
12 -40 50 0
-5 15 32 0
-2 -12 32 0
-34 45 50 0
-7 -9 -46 0
4 -38 47 0
-12 30 40 0
-18 40 45 0
7 -47 -49 0
-4 -7 -39 0
10 19 -22 0
5 6 26 0
32 -39 -50 0
12 23 49 0
14 25 47 0
4 34 36 0
-27 42 -50 0
5 -36 -49 0
-14 20 -34 0
20 -25 -30 0
-19 24 -40 0
14 15 50 0
11 17 45 0
10 -21 -25 0
17 19 27 0
-15 19 21 0
-21 -22 27 0
38 40 47 0
12 28 32 0
-17 -28 46 0
14 36 -40 0
30 -39 -46 0
2 -11 35 0
19 23 -25 0
-17 24 50 0
14 -26 -30 0
9 -19 -29 0
-31 34 -35 0
3 -6 -45 0
12 -34 -48 0
15 27 45 0
3 -9 -49 0
11 -36 -45 0
9 25 -41 0
17 28 -36 0
9 -27 32 0
8 34 45 0
3 -19 -38 0
22 28 34 0
-10 -20 -39 0
5 17 -23 0
-21 -22 -31 0
3 27 31 0
4 6 41 0
19 -41 45 0
-2 11 12 0
-7 9 46 0
11 -14 24 0
14 19 50 0
-7 15 45 0
-24 30 -39 0
-3 -40 -48 0
-1 20 32 0
-24 31 44 0
-15 -26 -39 0
2 31 32 0
-23 32 -48 0
-16 23 41 0
5 -15 -40 0
-19 37 -39 0
15 21 -33 0
-13 -16 -19 0
8 -9 -49 0
-1 -3 -9 0
15 -16 24 0
5 22 38 0
-10 -15 -17 0
39 -46 -47 0
-10 -14 41 0
-26 -30 -41 0
11 -36 39 0
-7 22 -44 0
10 -27 -44 0
-23 -28 -45 0
-44 47 48 0
29 41 -47 0
14 40 -47 0
-28 -30 -37 0
7 21 41 0
17 25 45 0
22 27 -43 0
-1 -33 -47 0
-12 21 43 0
-7 -24 -29 0
-8 -39 -45 0
-2 17 -42 0
-1 20 24 0
8 -11 32 0
-1 15 38 0
8 11 31 0
3 9 14 0
-26 46 -49 0
-14 19 39 0
4 14 -41 0
-15 20 31 0
-16 37 42 0
6 -10 -46 0
8 13 -14 0
5 6 17 0
-1 23 29 0
-18 35 -49 0
12 24 -31 0
-20 23 45 0
13 17 -48 0
9 -25 -38 0
-7 -11 14 0
5 -14 -19 0
9 28 -44 0
4 -11 30 0
-6 -43 50 0
8 -10 24 0
7 -28 -41 0
-17 -28 29 0
21 -26 29 0
8 -28 -35 0
12 18 34 0
32 34 -38 0
-9 25 34 0
3 42 -45 0
12 14 -27 0
2 -38 45 0
-7 23 -36 0
-12 16 -24 0
-4 -5 -37 0
-30 -47 -50 0
-8 -19 49 0
11 16 45 0
-31 -39 -43 0
12 29 38 0
-7 23 32 0
1 -37 42 0
-5 -20 -44 0
7 24 -45 0
-7 -37 -40 0
15 -22 -35 0
26 44 45 0
-17 -26 32 0
-5 11 -47 0
1 -33 -43 0
-8 -29 35 0
6 -8 19 0
6 28 48 0
23 27 -30 0
12 -18 23 0
4 -7 14 0
4 -37 -45 0
-2 -31 48 0
18 19 44 0
26 -46 50 0
6 -27 -34 0
-2 7 -18 0
-1 -39 -42 0
-10 -12 30 0
22 -38 -47 0
13 20 50 0
-9 -23 -28 0
-10 36 49 0
-23 33 -38 0
-6 -38 49 0
-11 -21 -27 0
-4 -20 32 0
-20 -27 -47 0
11 19 -47 0
1 -25 -47 0
-12 -23 -28 0
-17 -21 23 0
-20 -21 32 0
-8 29 31 0
29 -37 50 0
12 -24 25 0
-23 41 48 0
-19 -37 -50 0
-3 -39 47 0
-14 35 -46 0
21 -24 40 0
14 -23 -39 0
6 20 -47 0
-16 19 -46 0
1 2 -9 0
-11 -20 -22 0
-11 -16 -45 0

