c Generated by rand.py 50 250 3 800448
c Generator source: https://github.com/aaw/sat/blob/master/gen/rand.py
p cnf 50 250
-10 38 49 0
-23 -25 44 0
8 17 31 0
-13 32 -37 0
29 -32 38 0
-1 -4 -41 0
13 -15 -42 0
-14 38 -45 0
3 9 38 0
12 15 -18 0
-5 17 -45 0
36 -38 -39 0
-33 36 46 0
8 -28 -45 0
-4 -37 -42 0
15 18 -48 0
-27 -35 -46 0
-18 -42 44 0
-29 -30 -43 0
4 -14 -42 0
14 21 43 0
19 25 -50 0
15 30 40 0
-1 18 -50 0
2 15 39 0
-7 8 -26 0
31 36 46 0
-12 -27 48 0
-11 14 16 0
-27 30 -40 0
-13 24 -38 0
-1 -4 38 0
-21 27 32 0
1 36 -41 0
-6 -30 -37 0
15 -16 25 0
-24 -42 45 0
6 13 -20 0
-8 25 40 0
-19 -20 -27 0
-17 36 -47 0
10 14 26 0
6 28 45 0
-8 -9 42 0
-2 -14 17 0
-4 30 50 0
5 -20 -44 0
-5 -10 27 0
10 13 -39 0
6 11 -28 0
-11 13 -16 0
7 44 47 0
13 -39 49 0
2 -5 32 0
15 -33 -44 0
-7 9 -28 0
6 21 -49 0
-1 13 17 0
28 -33 -37 0
-14 -17 -50 0
9 25 37 0
1 15 -43 0
-25 28 31 0
-17 -18 42 0
3 6 22 0
-3 4 -5 0
-7 12 13 0
11 15 37 0
-4 -14 46 0
-16 -18 -28 0
-28 31 -41 0
29 -38 43 0
-5 24 -43 0
-24 42 -50 0
-5 -8 18 0
29 38 -41 0
6 -7 -31 0
-14 -39 45 0
30 35 -50 0
9 47 49 0
2 -7 -38 0
16 -20 37 0
14 38 -46 0
-15 16 20 0
9 -13 14 0
26 40 -43 0
23 -32 -42 0
28 -31 38 0
-5 43 45 0
-4 -5 -31 0
-11 -47 50 0
-24 -25 -32 0
-1 16 -37 0
-6 -9 34 0
-17 -38 -50 0
18 20 41 0
-27 42 -50 0
3 4 24 0
-3 6 -44 0
11 -34 42 0
4 23 -24 0
-4 32 35 0
6 17 26 0
7 -27 38 0
22 -41 -47 0
-32 39 46 0
-3 -33 -39 0
5 15 33 0
5 25 44 0
-6 -13 48 0
-5 26 34 0
4 -9 -28 0
6 39 50 0
-3 28 -42 0
17 -23 -42 0
14 -36 39 0
2 -32 -49 0
-2 -25 -32 0
21 -34 -38 0
21 44 45 0
-1 -12 -35 0
22 25 -37 0
15 -25 42 0
14 -30 37 0
17 -31 41 0
-12 -20 24 0
-7 12 22 0
-4 36 38 0
-16 -21 48 0
-18 -27 36 0
15 -33 34 0
-21 40 -43 0
-7 38 -41 0
-23 -24 -43 0
-1 -21 -32 0
-2 5 -44 0
19 27 47 0
-10 17 37 0
14 -19 24 0
-8 -24 -47 0
26 -39 47 0
2 18 29 0
-21 29 34 0
6 9 -11 0
-12 27 -40 0
-21 34 50 0
13 -29 42 0
-4 6 -21 0
-7 -34 -48 0
-2 38 39 0
-13 33 -44 0
-3 35 -41 0
-13 -39 -44 0
1 20 -39 0
-1 34 -39 0
15 -27 -47 0
17 19 -20 0
-23 -45 48 0
-13 27 -32 0
-19 23 24 0
-3 -13 18 0
6 10 43 0
27 -30 33 0
33 43 47 0
-6 -10 -12 0
-33 -36 -43 0
-7 36 -48 0
-3 -36 49 0
-8 44 47 0
15 -34 48 0
1 2 -11 0
30 42 -43 0
-31 -42 -48 0
-5 7 -10 0
-32 36 -44 0
-24 32 44 0
4 -7 20 0
2 -10 49 0
22 -33 -40 0
6 -29 -36 0
-2 -12 19 0
-3 22 -25 0
8 -23 -45 0
-9 -40 47 0
7 23 -34 0
8 -19 -33 0
10 -22 30 0
-11 24 44 0
11 -33 -41 0
29 -31 -39 0
18 22 46 0
17 -19 -25 0
-3 22 49 0
-11 12 41 0
23 33 -37 0
7 -20 -46 0
25 -42 44 0
-8 -9 -35 0
-1 8 -34 0
-1 2 13 0
-21 26 -48 0
11 -26 48 0
2 -32 -47 0
11 15 21 0
1 17 -48 0
-17 20 -44 0
23 25 -43 0
-16 37 45 0
-6 -9 -48 0
12 -32 34 0
14 -33 50 0
14 30 -45 0
-18 -25 42 0
14 24 -46 0
13 15 -45 0
20 26 -48 0
-10 -13 47 0
-29 39 42 0
2 -8 44 0
12 33 40 0
1 26 30 0
-4 -12 -28 0
-10 -16 39 0
-14 20 -39 0
10 40 46 0
12 -38 -49 0
10 -35 49 0
12 28 -47 0
14 -35 37 0
-21 -25 27 0
12 -17 -37 0
-7 18 -29 0
3 32 38 0
17 -19 -24 0
14 26 -37 0
-30 34 -37 0
-10 -34 -36 0
7 -24 32 0
-1 13 -45 0
-7 -12 18 0
-8 19 -21 0
3 14 42 0
-17 26 -50 0
4 -18 -32 0
-20 -33 43 0
4 -13 36 0
1 -23 -38 0
37 41 -44 0
4 14 20 0
-9 14 -20 0

