c Generated by rand.py 75 375 3 303731
c Generator source: https://github.com/aaw/sat/blob/master/gen/rand.py
p cnf 75 375
-35 44 54 0
-23 37 74 0
-17 23 -30 0
-33 -50 62 0
43 -65 -68 0
27 -58 -72 0
-13 19 57 0
-3 29 34 0
7 38 -48 0
-20 36 46 0
52 -57 62 0
6 47 -63 0
19 -28 -50 0
-45 49 -64 0
32 34 -67 0
-24 37 -59 0
2 -18 23 0
-28 -31 50 0
-12 -33 -40 0
11 27 -36 0
-17 34 70 0
-18 26 52 0
22 -24 68 0
-19 -42 -63 0
-4 -25 35 0
-22 46 51 0
-7 -42 51 0
-25 -31 -75 0
12 -22 -63 0
15 -23 24 0
-3 -20 55 0
-6 -53 56 0
42 -46 52 0
-16 -26 -51 0
14 18 -27 0
60 72 74 0
-13 58 61 0
-8 66 -69 0
-13 -32 69 0
48 62 -73 0
-1 37 -74 0
-41 60 -63 0
-14 22 53 0
15 -41 -52 0
21 43 72 0
10 -29 74 0
7 -48 67 0
-16 -41 52 0
1 2 -69 0
-5 -15 -49 0
12 -25 71 0
19 -46 67 0
-51 -55 -60 0
-5 13 17 0
36 -60 -74 0
-9 41 -43 0
-43 47 69 0
4 -25 38 0
-19 -22 -58 0
10 33 -48 0
-27 53 67 0
-14 -34 36 0
6 7 53 0
-8 -72 73 0
-9 -18 28 0
-9 -39 64 0
7 32 49 0
-9 -22 -70 0
28 -48 -70 0
-2 21 -38 0
2 66 -71 0
2 24 58 0
31 -34 48 0
2 -17 54 0
-31 58 72 0
-4 -6 -35 0
10 30 -46 0
4 -35 57 0
-27 -35 43 0
-12 24 -64 0
-12 -48 61 0
18 55 58 0
-6 -12 41 0
-4 -22 -44 0
-2 31 -74 0
-8 -19 46 0
15 41 56 0
-1 -33 55 0
13 51 67 0
20 -27 -51 0
-30 -35 -56 0
27 62 -71 0
48 50 58 0
-31 -48 -67 0
47 -50 56 0
-32 -65 -66 0
1 15 52 0
-1 -58 68 0
44 54 65 0
14 -29 -54 0
21 40 -58 0
-14 -37 -39 0
20 -24 69 0
7 41 -54 0
-27 -54 -55 0
20 -21 -73 0
6 -9 50 0
-22 -33 41 0
29 60 65 0
3 66 -70 0
-15 -52 74 0
-13 17 24 0
-32 58 67 0
-2 6 -62 0
40 -57 -73 0
-14 -55 59 0
1 -3 -30 0
11 31 -33 0
10 48 -62 0
-3 -15 -23 0
3 -28 -46 0
-5 45 63 0
-4 53 72 0
-37 -53 62 0
11 41 -51 0
-51 71 -72 0
14 -48 64 0
-22 -62 75 0
1 27 -53 0
2 -55 -68 0
-26 -55 60 0
4 26 44 0
12 -35 -60 0
-16 -50 -75 0
-3 -4 26 0
-23 30 68 0
42 -51 -74 0
-24 -30 42 0
27 -31 32 0
35 -69 74 0
13 -15 54 0
40 -49 63 0
-9 -41 43 0
-26 -36 -68 0
23 -29 50 0
-10 -18 49 0
-8 -54 75 0
-33 -54 -59 0
23 61 -64 0
-58 62 -67 0
22 32 -69 0
-20 -63 68 0
-32 -44 75 0
-38 55 63 0
-12 -25 -31 0
-44 56 67 0
-1 4 -16 0
-16 -35 -67 0
11 30 44 0
-18 -28 74 0
-3 5 -25 0
31 47 74 0
-17 26 31 0
-9 60 -63 0
-19 -72 -74 0
-56 -57 74 0
-5 -51 65 0
24 -28 -62 0
25 37 46 0
-30 -46 50 0
27 49 58 0
7 29 50 0
-12 -31 -45 0
17 -30 75 0
-9 31 46 0
-31 40 -73 0
-4 -16 59 0
26 57 65 0
21 -33 41 0
16 -36 -50 0
-15 -36 -57 0
-18 59 -68 0
28 52 57 0
-36 -42 72 0
16 36 40 0
-2 -20 45 0
2 -36 56 0
-18 28 50 0
-32 37 62 0
-14 37 54 0
-27 46 -73 0
-36 37 61 0
35 50 -63 0
-12 -25 73 0
-29 -36 47 0
32 -53 -71 0
-3 20 67 0
55 -58 61 0
9 37 62 0
-26 34 -53 0
-1 46 -47 0
12 -24 58 0
-34 40 72 0
-1 8 28 0
6 18 58 0
3 -5 15 0
-28 -59 60 0
4 -25 54 0
29 -51 -70 0
14 37 49 0
53 -71 -72 0
22 26 -49 0
3 -61 63 0
37 66 71 0
1 43 44 0
27 36 -70 0
-26 36 -66 0
-7 -65 70 0
-9 -31 47 0
-11 -31 62 0
-51 -58 66 0
-13 39 -57 0
8 -16 -28 0
-3 -36 -69 0
11 45 -46 0
-8 15 65 0
-8 45 49 0
-3 24 -25 0
-44 65 72 0
38 40 -56 0
-11 -14 66 0
15 67 70 0
5 -14 33 0
-23 37 72 0
-27 59 75 0
22 40 -51 0
-9 -56 -59 0
24 -48 62 0
16 62 -66 0
-4 11 -17 0
16 29 40 0
-2 3 -37 0
23 28 68 0
-3 -6 36 0
35 41 -51 0
2 -40 66 0
-12 -42 -49 0
-30 -34 38 0
-17 -22 -45 0
4 -37 44 0
4 -41 68 0
9 -27 31 0
-17 18 69 0
4 31 -74 0
2 -29 37 0
-3 25 -64 0
-23 -41 57 0
-7 -36 45 0
-5 7 21 0
29 -41 -68 0
21 -36 -67 0
-7 47 73 0
11 -34 -36 0
-4 13 36 0
-10 72 -75 0
20 23 69 0
7 -18 -51 0
-29 33 72 0
-30 52 73 0
-3 -59 -63 0
9 63 74 0
-7 36 -51 0
-42 43 62 0
45 58 -67 0
10 34 -68 0
9 20 -35 0
-27 -39 -63 0
-10 28 55 0
9 23 37 0
-2 17 71 0
6 -15 -28 0
16 -22 50 0
1 12 -59 0
3 19 59 0
21 -48 -68 0
8 -15 -68 0
-3 -12 -68 0
-9 41 46 0
-18 -45 -60 0
-2 -6 44 0
27 -41 44 0
-18 29 -43 0
-26 -49 -53 0
14 -40 -44 0
-18 29 -40 0
-17 -32 -39 0
22 -33 -43 0
-13 14 31 0
24 25 29 0
-43 -52 61 0
-21 37 -55 0
4 19 -67 0
-4 -25 70 0
42 -57 -74 0
-6 -10 -59 0
11 29 65 0
-19 -44 -60 0
29 -65 -74 0
-3 24 -51 0
-1 -41 63 0
-11 23 45 0
-11 54 57 0
24 -33 -54 0
17 -43 50 0
53 -55 57 0
15 -26 -53 0
-7 27 44 0
25 52 66 0
4 51 72 0
-2 -19 -47 0
25 30 46 0
24 36 -60 0
11 20 -48 0
34 -37 75 0
26 53 75 0
-54 -55 -57 0
-25 61 -70 0
17 -39 -62 0
37 40 48 0
8 -50 -67 0
2 59 -70 0
18 -48 -74 0
-7 28 44 0
30 -46 -60 0
5 -11 21 0
1 -34 -41 0
-37 -53 -72 0
21 42 54 0
-35 41 -56 0
26 37 -68 0
-16 -39 50 0
2 -68 72 0
-31 34 -43 0
-1 -29 67 0
-8 36 37 0
-7 -22 -53 0
5 -6 57 0
25 28 -41 0
3 49 -50 0
-15 -17 20 0
26 -44 64 0
-11 12 -21 0
-5 -34 53 0
19 25 -56 0
18 -41 43 0
-9 -24 37 0
7 -18 -70 0
-3 -24 -63 0
28 30 31 0
28 30 -74 0
-31 46 -52 0
-46 61 64 0
9 20 64 0
24 -34 -40 0
20 -40 -61 0
7 51 -68 0
45 -46 -52 0
-5 -22 -68 0
-1 -9 29 0
43 63 -67 0
6 -21 46 0
30 47 58 0
-28 -42 -68 0
-32 -52 -72 0
3 -22 -59 0

