c Generated by rand.py 100 500 3 994881
c Generator source: https://github.com/aaw/sat/blob/master/gen/rand.py
p cnf 100 500
8 -32 84 0
-10 -44 76 0
-32 -33 52 0
-34 -89 -95 0
-68 -76 87 0
36 63 -64 0
12 -16 -32 0
-31 60 -61 0
13 -18 47 0
-43 -47 88 0
-15 -88 90 0
-18 -42 58 0
7 -84 86 0
-18 -76 -85 0
50 -97 100 0
21 36 98 0
-54 -72 86 0
8 -10 15 0
26 -49 68 0
54 72 -75 0
-20 35 86 0
16 -56 -77 0
67 -71 -80 0
22 27 98 0
46 65 -79 0
33 71 72 0
-20 -28 -78 0
-9 -41 94 0
-28 -41 -50 0
-8 -18 39 0
-42 -55 67 0
20 -59 68 0
13 -64 -78 0
50 60 89 0
17 -56 -95 0
40 -85 86 0
-27 48 -81 0
74 -89 -99 0
-32 -57 82 0
-16 47 -71 0
-1 -2 62 0
-17 -37 58 0
-11 53 82 0
-29 78 -84 0
-23 44 -89 0
-17 -18 91 0
-86 88 -94 0
-30 44 61 0
41 57 95 0
-3 21 -67 0
2 -33 -74 0
-10 86 88 0
54 71 81 0
-25 -77 -94 0
-57 60 62 0
-39 50 74 0
14 -20 96 0
-39 70 -95 0
17 -43 -67 0
-40 -42 -74 0
-15 -33 95 0
-3 22 -29 0
-3 -58 -73 0
12 -46 -94 0
-2 -43 69 0
-8 31 58 0
-6 -63 -69 0
50 -86 87 0
4 -27 30 0
22 57 94 0
-8 -47 -64 0
-6 22 -54 0
-40 59 -88 0
65 66 -78 0
74 85 -97 0
10 28 -29 0
-1 31 -90 0
-57 67 -90 0
-17 26 96 0
13 45 92 0
11 -20 -97 0
12 -57 81 0
3 -24 -34 0
-19 -77 -88 0
21 24 -27 0
13 -48 96 0
41 -42 93 0
17 55 100 0
13 34 -100 0
17 -44 59 0
24 84 88 0
-20 -26 66 0
8 -16 83 0
1 -51 57 0
1 5 91 0
-30 33 37 0
-3 -29 -100 0
-7 -37 -93 0
22 -31 -58 0
20 56 82 0
-58 75 87 0
15 56 -89 0
7 -20 80 0
33 81 83 0
-2 -70 97 0
14 64 -92 0
-40 -42 -47 0
-1 -34 91 0
3 40 47 0
6 -69 80 0
-7 -38 -57 0
-20 -90 100 0
-29 -37 74 0
-48 63 91 0
-3 -25 57 0
9 -10 -60 0
3 40 -77 0
-15 29 80 0
-18 43 -59 0
83 95 -99 0
-29 31 97 0
-7 78 -100 0
-33 84 96 0
1 -60 75 0
7 9 41 0
-14 -35 55 0
-27 68 -87 0
-3 -68 85 0
-51 57 -61 0
-18 32 -97 0
15 27 40 0
-21 -28 -63 0
-2 -14 98 0
-12 -17 69 0
37 -62 84 0
13 -56 73 0
-58 67 76 0
7 -17 -51 0
-41 64 71 0
3 34 76 0
-8 70 -92 0
-8 -75 88 0
-14 28 -34 0
45 -72 -78 0
38 -39 -100 0
-16 -89 -93 0
41 70 76 0
32 -67 -93 0
54 -63 -89 0
-38 -49 -50 0
2 -74 -87 0
24 45 51 0
-36 -57 -69 0
-19 -34 65 0
-12 -37 -71 0
22 -52 62 0
-55 -60 -82 0
-34 -37 -91 0
47 -60 73 0
-57 -75 93 0
-31 -43 66 0
-1 -42 -60 0
8 38 49 0
41 53 -88 0
-17 25 -65 0
-25 39 -43 0
-2 39 -68 0
2 3 -97 0
9 -11 -42 0
-2 17 -52 0
4 27 -47 0
-2 -15 -68 0
-2 12 -59 0
28 38 58 0
5 35 -96 0
16 28 -93 0
27 -48 53 0
-4 8 15 0
-41 -55 -70 0
-40 -44 -69 0
-36 -61 94 0
-57 61 -71 0
14 66 79 0
-13 17 36 0
4 15 -89 0
-3 36 39 0
-1 42 -94 0
19 -40 82 0
46 -62 -69 0
-15 18 -34 0
30 33 89 0
-10 -13 -97 0
-45 -48 -70 0
-14 41 -96 0
-79 -99 -100 0
-13 41 52 0
-11 55 82 0
-55 -57 -99 0
-3 7 -75 0
4 -46 -66 0
8 -40 55 0
28 -54 65 0
-60 -75 -89 0
4 22 45 0
27 -28 -50 0
-35 50 -61 0
4 -33 -39 0
19 33 50 0
35 68 -85 0
38 58 -99 0
-33 -64 90 0
51 63 -78 0
5 -12 80 0
8 -37 -67 0
91 93 -99 0
-62 -65 76 0
67 79 -99 0
24 -39 -41 0
-10 34 77 0
-15 25 94 0
-50 -53 89 0
2 -39 79 0
-1 25 27 0
34 -37 -100 0
-13 -21 -74 0
-1 -20 30 0
8 51 -90 0
32 -42 64 0
-4 39 -89 0
-17 -38 89 0
24 -59 -83 0
-12 77 -90 0
-10 -21 -72 0
30 58 -67 0
-7 -40 44 0
-51 76 78 0
-8 35 -85 0
31 36 67 0
9 -27 -44 0
52 -54 -71 0
43 65 87 0
-12 -21 -65 0
-5 52 -97 0
9 32 33 0
68 81 86 0
-55 62 94 0
13 18 98 0
-29 -80 -98 0
-13 -88 92 0
-26 59 99 0
-23 -49 -93 0
-31 95 -98 0
-49 98 -100 0
43 -45 -66 0
30 40 -91 0
49 89 96 0
13 37 -69 0
-2 -10 -33 0
-46 47 76 0
-18 43 -93 0
-41 -83 86 0
-28 60 -71 0
-6 -38 51 0
-11 73 -76 0
-10 87 -94 0
7 20 47 0
32 62 -70 0
-9 -76 -92 0
28 -44 -47 0
15 59 -67 0
-11 14 83 0
29 59 85 0
-36 77 98 0
28 -62 -97 0
-68 94 -99 0
-23 -38 -78 0
-21 -39 77 0
67 -71 77 0
32 72 -76 0
8 -59 -69 0
-20 -80 88 0
-32 38 96 0
-8 -63 -71 0
8 -28 30 0
-36 46 -49 0
48 50 -74 0
36 -52 55 0
-20 -32 -40 0
30 -39 81 0
-56 -67 98 0
45 -57 87 0
20 24 -53 0
-5 20 -99 0
-11 -63 -90 0
75 -81 87 0
-26 -34 -98 0
-41 -45 100 0
-30 41 -76 0
1 13 89 0
9 -12 19 0
15 -47 -71 0
7 -72 -97 0
-41 -54 58 0
-8 -25 -70 0
31 -38 86 0
56 -76 81 0
10 15 -87 0
17 67 -89 0
-5 75 -77 0
-5 -50 86 0
-56 -79 92 0
48 72 79 0
6 -8 58 0
34 55 87 0
-73 -87 91 0
20 -35 68 0
-32 -63 98 0
-44 -53 -73 0
-15 19 54 0
24 -53 -91 0
9 41 -47 0
47 -58 -63 0
-13 48 95 0
41 47 -64 0
-45 55 -58 0
56 -59 75 0
38 69 -88 0
21 37 -100 0
64 85 -98 0
72 91 -96 0
11 16 -61 0
-74 -90 -93 0
-10 12 71 0
8 -34 66 0
-44 -53 96 0
9 21 91 0
-47 -55 67 0
-1 55 77 0
-16 25 -62 0
7 -19 -50 0
-3 53 -63 0
16 53 98 0
-37 46 -62 0
-3 23 -61 0
5 -55 -74 0
-10 75 -82 0
-34 -68 86 0
54 -62 -84 0
12 52 77 0
-56 69 -75 0
38 50 87 0
-32 49 -52 0
-2 -75 -77 0
53 -56 87 0
-17 35 -55 0
-34 49 88 0
2 6 61 0
24 -87 88 0
-18 43 57 0
-50 51 83 0
-14 34 53 0
78 -80 -85 0
13 21 31 0
-25 -76 -89 0
4 29 100 0
51 64 -93 0
28 43 -45 0
19 -47 -48 0
32 70 -73 0
-24 -60 -100 0
-26 -62 -100 0
45 60 -97 0
-16 -26 51 0
3 66 79 0
66 -87 88 0
47 60 -70 0
-31 90 91 0
-81 -83 -85 0
21 -41 71 0
-29 76 85 0
-1 4 -63 0
-51 60 66 0
21 -40 48 0
14 35 -87 0
6 34 -58 0
-17 -45 95 0
14 70 -81 0
-1 -23 84 0
27 -51 -76 0
45 52 100 0
5 -7 -26 0
8 -56 -70 0
-27 -36 75 0
-43 52 99 0
-48 62 -70 0
-1 7 -9 0
11 -14 -35 0
39 59 -85 0
-54 62 -78 0
-6 -25 71 0
-28 -36 77 0
-14 40 -42 0
-19 29 48 0
-38 -51 80 0
60 -69 70 0
46 -62 -83 0
53 -73 95 0
40 60 66 0
-26 38 -63 0
9 -64 -71 0
-47 63 85 0
-4 21 -27 0
-31 37 49 0
-13 -17 -45 0
49 59 88 0
-6 -58 67 0
2 -15 -98 0
-17 -97 -100 0
-53 -75 77 0
-22 -28 49 0
-4 -50 58 0
-55 59 -88 0
44 -51 -85 0
-47 -82 84 0
7 26 58 0
-71 -72 80 0
64 -80 -90 0
-24 -26 -27 0
43 86 -100 0
-28 -48 -60 0
17 26 -77 0
13 -66 69 0
10 17 41 0
68 -70 96 0
10 12 18 0
-24 -39 -42 0
13 56 93 0
47 -54 95 0
-41 -71 -89 0
8 63 -92 0
-61 -88 -100 0
-4 28 -50 0
-50 -65 85 0
31 -83 -89 0
-21 -76 -95 0
53 -60 66 0
-17 43 92 0
23 -37 67 0
-5 17 -52 0
45 68 -100 0
-21 -32 55 0
49 68 -73 0
-19 -74 -89 0
13 21 23 0
32 59 86 0
8 33 -99 0
-30 32 33 0
-23 46 86 0
71 79 81 0
21 -79 80 0
11 -39 -74 0
-2 -10 -48 0
-15 29 -79 0
-4 67 -79 0
28 -32 82 0
-42 -51 -53 0
-5 75 -83 0
30 68 78 0
-45 -50 -61 0
-29 -72 83 0
-34 41 -97 0
-2 -47 48 0
4 45 -85 0
5 8 -92 0
75 -83 93 0
-34 -68 -99 0
-27 56 79 0
-2 10 -50 0
3 18 45 0
22 68 -76 0
7 20 -85 0
4 29 49 0
-19 59 -79 0
56 70 82 0
29 -88 -92 0
-27 63 95 0
2 51 -67 0
-4 -27 86 0
28 -42 -90 0
5 -59 70 0
1 -20 77 0
-29 32 60 0
49 -51 63 0
-20 55 -57 0
-37 64 69 0
-8 -15 -43 0
-15 -74 97 0
5 -33 -84 0
-58 93 -97 0
-4 -80 -85 0

