c Generated by rand.py 100 500 3 524142
c Generator source: https://github.com/aaw/sat/blob/master/gen/rand.py
p cnf 100 500
12 -54 92 0
-30 -64 -66 0
3 44 59 0
-20 -23 -73 0
22 74 -93 0
-53 77 92 0
-8 49 85 0
6 18 29 0
30 52 -62 0
-10 -15 -62 0
-15 77 -80 0
27 44 60 0
-6 69 -72 0
-9 22 92 0
15 -31 73 0
-4 -21 44 0
8 19 -21 0
-24 -49 -59 0
-15 -46 74 0
-27 43 -55 0
-12 -43 -75 0
-20 -63 -71 0
-7 -33 -86 0
-32 -59 -95 0
42 67 -94 0
-53 -64 -78 0
-16 -52 75 0
16 -17 -38 0
-45 -67 91 0
-20 60 -69 0
-5 15 -57 0
-24 44 -88 0
22 -60 94 0
22 -35 82 0
20 -52 -98 0
-28 -30 -55 0
-56 -75 79 0
-31 47 66 0
1 18 21 0
33 43 85 0
-23 37 62 0
-71 85 94 0
-18 56 -68 0
-18 59 -66 0
-25 28 -45 0
12 32 67 0
-5 -32 -99 0
-8 -53 -87 0
-37 38 -89 0
-8 34 95 0
-23 -40 -78 0
31 -32 -92 0
24 -30 -51 0
-19 39 -67 0
2 -14 -26 0
24 -36 -65 0
-27 -33 -36 0
9 -37 -51 0
9 -26 69 0
5 51 71 0
-8 72 -77 0
26 34 -83 0
-43 65 -71 0
-3 -39 -91 0
42 89 95 0
10 -37 -91 0
-76 -77 -87 0
2 -20 -54 0
9 16 -25 0
-6 10 84 0
-10 -59 -77 0
4 -17 -72 0
12 23 31 0
32 -33 41 0
-9 10 24 0
6 32 42 0
-8 -70 82 0
41 -43 96 0
9 29 53 0
-58 77 94 0
-26 57 77 0
17 26 81 0
40 73 77 0
33 87 -91 0
-8 -28 61 0
2 -3 71 0
-1 33 65 0
23 25 -71 0
8 13 -22 0
-36 -38 96 0
-19 82 86 0
-18 -74 -99 0
56 89 -100 0
10 -14 -40 0
-12 60 -97 0
31 -65 -66 0
-5 38 -73 0
10 39 -94 0
6 -18 -68 0
-13 22 95 0
-15 53 -74 0
42 -87 -90 0
-5 34 -78 0
-36 -38 -90 0
-77 81 -87 0
-31 -61 -76 0
22 73 -94 0
-8 -34 -49 0
-45 52 -75 0
7 -57 -98 0
13 70 -75 0
1 51 -75 0
13 -59 91 0
70 82 99 0
37 71 73 0
26 77 78 0
28 -65 74 0
-31 38 -73 0
-2 21 -81 0
3 37 53 0
-35 61 -70 0
11 37 -38 0
-8 -45 55 0
-21 54 -62 0
2 91 92 0
16 -48 -91 0
3 -43 -48 0
-77 -79 100 0
30 81 -98 0
-5 -16 -21 0
-7 -41 -84 0
-49 81 -91 0
10 -59 -86 0
-7 15 65 0
21 -26 47 0
-89 91 -99 0
20 -71 95 0
11 46 -52 0
47 69 90 0
20 -34 49 0
-14 60 -87 0
-49 -69 92 0
19 -23 65 0
23 71 -87 0
-63 -66 88 0
-3 54 100 0
67 68 85 0
-45 55 -96 0
24 -74 91 0
5 -6 -94 0
19 59 -93 0
-19 -77 96 0
24 -26 79 0
8 49 -85 0
21 40 -81 0
-36 70 -72 0
-16 36 -73 0
-18 73 75 0
57 84 -88 0
31 -51 -52 0
5 60 87 0
-14 72 86 0
-37 -63 -92 0
35 -85 -87 0
23 67 -75 0
17 19 39 0
-31 -49 84 0
-28 -43 94 0
21 -52 -56 0
48 67 -85 0
-26 -81 97 0
-77 -81 -87 0
-8 11 -74 0
3 16 98 0
-39 72 -73 0
6 36 100 0
-16 -39 -53 0
-20 67 95 0
2 66 -67 0
1 -89 -91 0
23 -93 -94 0
13 -15 42 0
4 68 91 0
47 90 -95 0
12 -72 -82 0
2 19 -94 0
-46 -78 81 0
13 63 -83 0
-19 -39 50 0
34 68 -71 0
19 -26 59 0
78 -79 -88 0
4 -34 77 0
16 64 -72 0
18 24 34 0
5 -30 -63 0
-11 -38 99 0
-30 -56 95 0
35 41 -49 0
3 -69 -71 0
58 61 86 0
-41 48 75 0
-26 -36 -45 0
-18 66 92 0
62 -63 68 0
47 63 -77 0
-27 30 -93 0
31 -38 -95 0
-39 -70 -82 0
-32 -86 98 0
-31 -57 90 0
-39 -76 95 0
31 -37 67 0
-15 -60 85 0
62 68 74 0
-31 -43 -97 0
28 -32 -60 0
-32 -34 -48 0
22 -44 -83 0
29 -36 67 0
-9 -37 -87 0
-9 68 86 0
3 40 -45 0
2 -15 25 0
10 -51 60 0
-21 39 57 0
-60 74 -90 0
-37 -64 -98 0
-11 54 85 0
-20 28 49 0
-24 60 65 0
-16 -28 50 0
-8 -33 -36 0
8 -53 -80 0
21 -55 -88 0
-20 30 -58 0
-35 -63 -100 0
14 48 89 0
-13 85 91 0
-3 -5 64 0
-43 -58 -87 0
-39 50 85 0
22 25 -43 0
64 67 -85 0
53 -57 -60 0
49 -79 90 0
52 62 -94 0
41 -48 79 0
6 -10 -41 0
-54 -91 -93 0
-4 16 -75 0
-32 48 67 0
-45 67 96 0
32 35 -67 0
26 56 -99 0
-14 38 -56 0
2 -15 -42 0
44 52 -88 0
12 33 -81 0
-41 54 89 0
-48 -68 93 0
-4 39 94 0
11 -45 100 0
-20 -50 -81 0
62 -92 -95 0
19 -23 -74 0
12 -20 43 0
10 -78 84 0
30 -36 57 0
-47 -48 68 0
-27 41 -70 0
21 30 -83 0
-40 48 90 0
14 77 -90 0
50 -76 89 0
-28 -81 88 0
10 -18 51 0
4 -10 49 0
50 -73 -95 0
-1 -35 59 0
24 -36 -50 0
-14 15 -47 0
-17 -23 -72 0
40 41 -73 0
44 -77 90 0
42 -66 -80 0
-22 -32 -92 0
30 31 -41 0
11 64 -67 0
7 19 -52 0
4 45 84 0
-5 -14 -90 0
25 30 -73 0
5 36 69 0
-29 61 -82 0
10 25 79 0
-13 29 67 0
16 57 58 0
9 -74 -78 0
-6 -20 57 0
7 25 -75 0
48 -58 -91 0
8 95 97 0
6 -39 -72 0
-22 -61 -65 0
-27 -75 91 0
45 58 -65 0
-23 28 -91 0
33 87 -95 0
-32 -45 -80 0
9 59 67 0
18 -19 82 0
-27 49 -91 0
-34 -82 -84 0
-8 -88 97 0
33 -45 -60 0
-23 -52 97 0
5 -14 -52 0
-26 42 60 0
13 36 60 0
45 -46 94 0
13 32 36 0
-27 -75 80 0
30 68 -91 0
47 50 86 0
30 32 -77 0
37 -61 84 0
22 33 66 0
12 78 85 0
-44 -63 -77 0
16 86 -90 0
20 41 -46 0
54 -56 -66 0
-29 36 89 0
32 -44 -58 0
14 74 77 0
-8 -19 29 0
7 -61 -81 0
22 -94 -99 0
-65 76 -98 0
-18 31 49 0
-35 -44 -63 0
10 -16 -89 0
3 14 55 0
-16 -57 72 0
46 74 89 0
-26 52 55 0
-8 11 62 0
3 -20 -100 0
-51 58 82 0
-50 -61 77 0
-34 68 95 0
-36 49 74 0
49 -63 -66 0
-7 29 89 0
40 72 78 0
-1 25 -83 0
4 -62 -86 0
-20 46 80 0
4 15 -51 0
48 51 63 0
20 22 68 0
-37 -76 96 0
25 30 77 0
-40 -71 -72 0
2 -44 -95 0
-8 23 -73 0
-19 25 -61 0
-24 -47 -53 0
33 84 89 0
-55 66 -99 0
2 64 -69 0
45 -74 88 0
-53 -82 -89 0
-7 19 84 0
-40 92 -95 0
-9 -40 -89 0
59 -63 -79 0
64 78 -93 0
24 -68 82 0
5 -11 48 0
48 75 -99 0
-3 24 48 0
54 72 92 0
47 86 -88 0
7 21 77 0
28 -44 88 0
-23 51 87 0
-52 73 89 0
30 88 -92 0
51 92 -100 0
13 -29 98 0
27 -36 -52 0
12 15 -40 0
-26 -43 -77 0
-72 88 -98 0
-9 10 11 0
-23 28 -90 0
7 -54 99 0
-26 -57 -95 0
67 -84 -99 0
35 -44 50 0
65 -77 -86 0
-25 32 -95 0
-54 -82 84 0
9 10 -36 0
49 -66 -97 0
-19 74 -80 0
-27 -36 62 0
30 53 -72 0
53 -79 94 0
-21 84 98 0
-45 55 59 0
5 -56 -64 0
15 -26 36 0
24 -51 83 0
-6 72 -90 0
-17 52 -62 0
-22 -53 -55 0
-15 -40 -80 0
-33 60 -63 0
1 31 -44 0
20 35 83 0
28 -68 95 0
-41 -69 83 0
14 49 -64 0
-75 76 -90 0
-5 33 -75 0
13 43 -84 0
-18 -80 -91 0
-20 -34 -86 0
34 -79 80 0
-3 -18 84 0
34 -51 -87 0
-3 50 -73 0
-28 60 -87 0
11 84 -93 0
43 -58 99 0
21 -25 94 0
23 -57 66 0
4 -34 49 0
45 88 -100 0
-4 51 -90 0
-11 19 -60 0
-2 -41 78 0
34 -51 -72 0
-13 63 -90 0
-11 31 59 0
-4 36 -67 0
4 -5 -7 0
26 -53 -60 0
2 14 -100 0
-52 63 -96 0
-27 -48 -77 0
-10 42 94 0
-31 -92 -100 0
-25 -51 -60 0
-2 6 57 0
-4 99 -100 0
8 -24 31 0
-31 62 83 0
-21 -57 74 0
56 -62 90 0
23 60 -76 0
53 -58 -100 0
78 -90 -98 0
-10 36 -93 0
41 -49 72 0
-22 30 -37 0
35 44 58 0
7 -80 -91 0
-8 30 87 0
39 80 86 0
44 -67 91 0
9 -44 99 0
-14 -33 -55 0
61 -65 -83 0
67 68 94 0
30 31 36 0
-14 25 27 0
11 -72 80 0
45 -86 -91 0
-27 31 -39 0
33 62 -80 0
3 -12 -28 0
50 62 70 0
-9 16 70 0
-6 58 -83 0
-59 89 97 0
25 -45 68 0
15 57 94 0
85 89 93 0
22 30 -55 0
-2 3 59 0
-52 -54 60 0
-64 81 100 0
45 -47 74 0
3 -19 57 0
60 -73 -87 0
28 -33 43 0

