c Generated by rand.py 50 250 3 687097
c Generator source: https://github.com/aaw/sat/blob/master/gen/rand.py
p cnf 50 250
-5 18 21 0
-19 23 -33 0
-5 24 31 0
-33 -36 -47 0
3 -5 -13 0
32 -40 -45 0
3 11 39 0
-3 32 -43 0
-23 42 -49 0
-7 12 30 0
4 -8 -47 0
12 -28 35 0
-42 47 -48 0
-4 20 41 0
5 10 34 0
-14 38 48 0
-7 -25 -26 0
2 3 -19 0
14 -23 34 0
-9 -22 46 0
13 21 48 0
-1 -41 -43 0
24 -26 40 0
2 -14 15 0
1 41 -48 0
13 17 34 0
16 19 31 0
33 -36 -42 0
21 35 40 0
3 36 -40 0
26 -29 33 0
13 34 44 0
1 -2 5 0
-10 -16 -27 0
12 -14 21 0
17 -33 -50 0
-11 -38 -45 0
-12 23 -44 0
-18 19 -29 0
-5 -21 37 0
16 -44 -47 0
7 19 -32 0
-17 -20 42 0
2 -15 -33 0
-11 17 -23 0
-8 -21 40 0
-2 5 -23 0
22 -32 -36 0
-2 -3 42 0
2 39 -42 0
7 -17 -40 0
16 23 31 0
10 -38 44 0
26 33 42 0
-27 31 -37 0
-2 -4 -42 0
-38 41 -49 0
12 29 -36 0
-10 15 -18 0
-7 -12 13 0
-25 -32 -33 0
11 -17 -47 0
-7 -17 -40 0
-4 25 48 0
-18 -20 -24 0
-17 -34 -37 0
-17 46 -48 0
-3 21 -49 0
6 -36 37 0
-6 16 -32 0
7 -27 38 0
-6 -15 46 0
-3 23 46 0
-15 19 -20 0
8 -36 38 0
-22 -40 -44 0
-18 23 25 0
-17 -23 48 0
6 -35 39 0
25 -27 30 0
2 -33 -47 0
19 -21 42 0
9 -23 35 0
2 4 -7 0
-25 36 38 0
3 19 50 0
-12 28 32 0
-4 39 43 0
-9 -14 47 0
12 -25 30 0
23 -42 50 0
-8 11 40 0
-15 -18 39 0
25 -34 49 0
16 -30 -41 0
25 45 48 0
-5 -7 44 0
-22 -23 -29 0
-28 46 50 0
16 -35 -37 0
-14 -32 -42 0
18 -34 41 0
20 -27 -48 0
-4 -6 41 0
38 39 48 0
7 16 -44 0
-8 -38 -50 0
-11 39 47 0
-10 -15 -41 0
10 34 37 0
5 22 46 0
19 24 38 0
8 -27 49 0
-12 -28 -41 0
-4 -8 25 0
5 15 30 0
-4 -48 50 0
-9 -16 17 0
-17 36 45 0
-2 28 -43 0
16 -32 45 0
8 26 -30 0
6 22 40 0
-6 -31 39 0
-24 33 36 0
-11 -20 -44 0
2 9 -48 0
-10 26 49 0
2 40 -49 0
14 -23 -31 0
5 12 47 0
-11 -12 -38 0
19 -28 -39 0
2 -19 -42 0
23 -29 -46 0
32 33 45 0
-11 -46 -50 0
-4 18 43 0
17 -19 28 0
9 40 48 0
-15 -24 -28 0
6 -25 -30 0
22 -37 -42 0
35 44 45 0
-4 -10 -26 0
20 21 39 0
21 -37 41 0
-8 35 49 0
-9 30 -37 0
11 24 -26 0
2 -22 -43 0
23 -30 32 0
33 40 -47 0
-22 31 48 0
-8 30 42 0
-8 37 -41 0
-6 -43 -48 0
18 30 -43 0
7 16 -39 0
-22 -30 -41 0
13 -28 -33 0
3 -13 -27 0
-2 45 -46 0
34 -47 50 0
-11 -26 -31 0
-2 -45 50 0
-2 5 -11 0
-8 -35 47 0
31 -43 -49 0
6 -31 48 0
3 15 -42 0
10 13 -48 0
2 25 -34 0
8 -11 23 0
9 19 26 0
5 -20 43 0
-2 35 41 0
-28 -34 -49 0
-23 32 -34 0
2 -7 46 0
-17 49 -50 0
-18 27 -38 0
-5 -17 -39 0
-3 35 -40 0
-3 19 -20 0
7 -14 41 0
-29 30 -43 0
-18 27 -37 0
13 -17 20 0
6 29 31 0
2 -38 49 0
-15 24 28 0
22 25 -31 0
-18 19 21 0
30 37 43 0
-4 -14 37 0
-4 8 14 0
10 -19 48 0
15 -28 33 0
-15 29 45 0
1 24 -31 0
1 -12 -14 0
9 -24 27 0
3 -12 50 0
-29 -39 -45 0
27 -38 50 0
16 -33 36 0
28 -35 46 0
-2 -34 50 0
5 -38 -49 0
-34 39 40 0
-28 30 38 0
32 -33 41 0
-2 4 47 0
-15 18 27 0
6 -12 49 0
18 -20 32 0
-19 -29 39 0
-14 -25 -34 0
-11 21 -37 0
-21 31 50 0
8 24 50 0
21 29 39 0
14 -15 -27 0
-15 -20 -43 0
-1 -43 -50 0
-11 -42 49 0
6 36 44 0
-10 -31 -39 0
-40 -41 45 0
-19 40 -48 0
27 33 44 0
-23 -32 -49 0
5 13 31 0
-19 22 -31 0
13 31 32 0
11 49 50 0
-1 -18 -27 0
-22 25 43 0
-4 -15 -27 0
23 -32 -42 0
-29 32 49 0
39 -41 -43 0
-9 29 30 0
-18 21 -35 0
-4 -21 -23 0
7 20 45 0
-17 18 28 0
19 -20 30 0
-4 -9 -33 0

