c Generated by rand.py 75 375 3 91472
c Generator source: https://github.com/aaw/sat/blob/master/gen/rand.py
p cnf 75 375
38 48 68 0
-28 -39 56 0
-17 -20 -51 0
34 49 59 0
29 -30 56 0
-40 62 70 0
-25 54 68 0
-14 21 -57 0
-2 55 -64 0
28 40 -53 0
15 53 65 0
-29 -70 -73 0
13 16 -48 0
19 37 53 0
-12 -25 -47 0
18 -60 -67 0
-4 33 -59 0
16 -23 38 0
-34 35 58 0
-2 26 30 0
7 15 49 0
-22 -56 -64 0
8 46 49 0
-6 29 -68 0
25 -64 -65 0
-37 -56 63 0
52 63 -66 0
38 -42 -54 0
-19 56 66 0
25 33 -41 0
-12 -32 -69 0
-4 26 42 0
-5 -13 37 0
4 -58 -65 0
32 -42 66 0
28 -35 -73 0
33 -54 -61 0
-6 38 50 0
6 -8 9 0
-50 -54 63 0
34 -40 -62 0
-41 45 -58 0
-30 -48 -73 0
15 40 -69 0
-35 -73 75 0
-31 33 -47 0
-3 -47 64 0
11 -30 -57 0
-2 -16 -32 0
13 14 69 0
12 -42 75 0
-1 30 57 0
-35 42 -67 0
-1 25 -60 0
-24 38 70 0
4 17 -46 0
11 -20 23 0
24 34 -69 0
-25 41 -66 0
-4 18 -57 0
23 35 -61 0
25 -35 -36 0
29 49 -75 0
8 -23 -59 0
-24 27 -51 0
-4 -8 18 0
50 57 -63 0
5 -19 31 0
4 -29 69 0
16 -49 -55 0
4 9 -21 0
-12 15 -24 0
23 36 -53 0
-9 28 -64 0
39 -61 -66 0
10 -14 -47 0
5 23 -67 0
30 40 -56 0
-30 -35 -74 0
-71 -72 74 0
9 -47 52 0
-2 -9 -64 0
26 -38 65 0
-11 27 -46 0
-17 72 73 0
-13 -35 -49 0
2 21 46 0
26 54 66 0
-20 -26 67 0
-1 -40 57 0
28 52 -60 0
16 20 33 0
14 -24 60 0
-34 39 55 0
14 -23 -41 0
-44 52 -61 0
5 -24 57 0
4 23 46 0
17 -68 70 0
11 -27 -54 0
-2 40 63 0
-34 69 72 0
6 34 58 0
-9 30 -53 0
-31 48 51 0
-18 32 -70 0
19 52 69 0
-3 74 -75 0
12 60 -75 0
-8 -61 -64 0
-19 -28 65 0
-50 -57 68 0
-4 53 -66 0
34 44 75 0
-29 -44 63 0
5 -13 -33 0
30 -34 -45 0
-16 -38 69 0
-12 21 -26 0
44 65 -70 0
40 -63 -66 0
23 39 64 0
46 -61 -68 0
-31 -40 -63 0
-23 -45 -60 0
15 47 70 0
5 61 63 0
17 48 61 0
-25 55 60 0
-15 -37 75 0
2 -4 13 0
7 -39 48 0
9 -25 -42 0
25 44 -74 0
-37 60 69 0
-22 -49 -69 0
-29 46 -52 0
-40 55 61 0
-10 40 55 0
-36 39 -70 0
-28 -36 61 0
7 -34 -46 0
-2 -50 -54 0
-19 52 58 0
-4 18 46 0
-6 -64 -69 0
5 -34 -69 0
-25 58 -62 0
46 67 73 0
6 -10 -60 0
-6 -13 57 0
-31 -42 -59 0
5 20 -68 0
27 -58 -74 0
14 31 62 0
-7 -20 -26 0
31 39 43 0
13 14 -25 0
-1 48 -69 0
-1 -19 61 0
35 42 61 0
48 -54 -55 0
19 -49 59 0
-16 19 71 0
-10 17 -60 0
28 -34 40 0
34 45 74 0
53 -60 67 0
19 -23 -47 0
9 73 75 0
-42 52 59 0
28 51 63 0
34 -49 -64 0
-1 -21 -51 0
-8 -49 -57 0
-18 -64 -69 0
35 50 61 0
-3 -16 -32 0
14 -50 53 0
21 -25 -59 0
58 61 -68 0
-26 33 -46 0
-26 -74 75 0
-40 43 74 0
-26 42 -47 0
42 55 -73 0
-23 29 -59 0
-4 -33 55 0
18 54 55 0
14 16 54 0
26 -31 -32 0
-32 -39 -59 0
-21 35 54 0
-26 -60 -63 0
19 -60 -62 0
28 50 -64 0
-4 8 13 0
11 33 64 0
-10 -24 25 0
-15 -53 63 0
-15 40 62 0
-13 -15 -47 0
18 -25 32 0
21 30 -68 0
13 -29 65 0
13 -30 71 0
6 -37 -74 0
-37 39 -69 0
2 66 -73 0
-17 31 -36 0
24 60 -71 0
-5 39 -44 0
1 -42 60 0
63 64 -72 0
52 58 -73 0
-29 36 -75 0
-6 28 62 0
9 -14 43 0
-9 -25 31 0
-2 3 22 0
10 -22 -47 0
-12 22 -32 0
-3 25 -53 0
11 -24 -35 0
-42 58 -70 0
-18 -56 67 0
-17 61 75 0
5 -28 40 0
-8 34 59 0
-8 35 -65 0
6 -15 -42 0
-26 -39 61 0
7 -45 -62 0
-7 54 -73 0
14 -35 -65 0
-30 -55 -69 0
13 34 -69 0
-28 51 -67 0
-5 -17 39 0
-21 36 39 0
-9 15 -68 0
2 27 -74 0
-3 -61 -67 0
-35 -45 66 0
-19 60 -64 0
50 51 -66 0
-20 -29 -65 0
-46 50 -69 0
-38 -71 -75 0
-50 51 -71 0
-3 -50 74 0
19 65 68 0
46 49 55 0
-13 -29 -41 0
-1 -39 67 0
17 -24 -53 0
-1 18 29 0
-53 54 -62 0
-22 -31 37 0
11 63 69 0
9 27 28 0
3 56 -57 0
-5 -18 48 0
27 -32 -65 0
45 -65 -71 0
-39 -67 74 0
28 53 61 0
15 29 69 0
19 49 -73 0
-23 -25 73 0
36 -56 64 0
25 54 57 0
-27 47 72 0
52 61 -66 0
11 60 -62 0
-4 26 63 0
-6 -15 61 0
1 27 -42 0
25 -43 -59 0
11 18 -53 0
-36 -46 75 0
15 17 72 0
5 18 50 0
-6 36 -75 0
-10 -15 -27 0
2 -24 57 0
34 -46 -72 0
-9 -14 61 0
-27 -37 -55 0
-19 41 53 0
5 -11 -35 0
-7 15 44 0
-1 -40 -42 0
-19 41 -47 0
-56 62 66 0
-43 -44 -66 0
48 -55 62 0
22 25 67 0
-4 -46 -69 0
-45 -59 -75 0
30 36 -54 0
29 52 -55 0
18 38 68 0
-22 -50 60 0
-6 -11 -45 0
-13 47 -71 0
-1 60 70 0
-6 -44 -47 0
-30 -39 65 0
23 -25 29 0
-9 30 -36 0
11 -26 -66 0
-1 49 -50 0
32 -55 64 0
14 27 62 0
16 49 -56 0
7 -37 49 0
-9 24 -74 0
-17 29 52 0
-36 58 69 0
-7 -38 -71 0
-2 10 -66 0
34 56 63 0
-44 57 -71 0
4 48 -69 0
35 -47 57 0
14 -33 -62 0
8 -37 -63 0
27 -35 -68 0
1 -50 -74 0
4 -34 -60 0
2 -25 -65 0
27 33 -39 0
-16 36 62 0
-1 -30 56 0
-9 50 -68 0
-49 -53 54 0
-4 -35 -36 0
35 -39 63 0
-2 39 71 0
-31 32 -55 0
10 -59 61 0
-43 61 65 0
7 34 -55 0
9 -34 -59 0
-28 -59 73 0
21 50 59 0
1 -12 -67 0
-36 -52 64 0
2 34 70 0
39 59 71 0
-56 -61 67 0
31 -37 44 0
-12 19 44 0
-7 -61 70 0
-14 -59 75 0
43 -57 -60 0
-18 33 -65 0
-21 35 51 0
-39 -63 75 0
4 40 -43 0
-7 29 -41 0
6 8 -42 0
6 57 74 0
-5 -17 -44 0
8 45 57 0
-11 -19 -64 0
12 61 -71 0
-16 -59 65 0
-19 -43 67 0
18 54 -70 0
-18 42 -59 0
-27 45 -57 0
47 49 66 0
45 -58 71 0

