c Generated by rand.py 100 500 3 742961
c Generator source: https://github.com/aaw/sat/blob/master/gen/rand.py
p cnf 100 500
-23 43 83 0
64 71 75 0
35 50 -80 0
-3 -37 -61 0
4 35 -49 0
1 36 -90 0
-47 60 -82 0
5 17 66 0
-43 -53 -82 0
-32 34 96 0
-9 -15 48 0
-37 -54 90 0
4 -8 97 0
15 17 91 0
-35 55 -96 0
-6 21 68 0
-25 -75 -90 0
-65 -74 84 0
-49 55 -67 0
41 55 -57 0
12 -76 -81 0
-7 -39 99 0
-28 -62 -67 0
33 37 -68 0
-17 -81 -85 0
-16 -30 67 0
73 85 -95 0
38 -50 94 0
-33 -34 88 0
22 75 100 0
31 43 72 0
-37 -59 -86 0
61 -64 -96 0
-13 -17 37 0
64 74 90 0
-7 10 -45 0
-2 -45 -88 0
-16 31 -53 0
-24 32 -74 0
1 22 77 0
-45 71 76 0
10 77 98 0
21 50 80 0
-57 71 79 0
30 -48 -73 0
-20 33 54 0
-24 -25 -53 0
-33 -46 94 0
18 -51 -97 0
-12 -27 92 0
18 25 77 0
-36 39 -61 0
-8 -49 -79 0
38 -55 73 0
-2 -20 86 0
63 -80 81 0
8 -67 81 0
-14 15 -53 0
-2 46 71 0
39 66 -79 0
-37 71 78 0
-5 -83 95 0
-16 -40 -79 0
23 47 -76 0
23 -25 -96 0
7 -11 74 0
17 86 -92 0
49 57 -62 0
-5 -40 -79 0
-16 -37 -62 0
-56 69 96 0
-43 -47 63 0
4 -43 -57 0
33 -34 74 0
1 -32 -93 0
-31 42 55 0
18 99 -100 0
-45 51 -80 0
-34 79 -95 0
-31 -38 -73 0
12 -74 88 0
5 13 -50 0
7 48 -56 0
1 -2 37 0
58 -65 -80 0
-19 -70 93 0
13 -28 90 0
-46 -71 -92 0
64 -68 87 0
-26 57 -85 0
-33 55 86 0
29 -51 -93 0
-25 -28 -83 0
-33 -80 91 0
15 -20 71 0
-20 -26 -56 0
3 40 96 0
12 -19 -31 0
-9 -20 69 0
-9 37 90 0
48 67 -78 0
29 31 68 0
32 -82 -84 0
19 -22 -98 0
-7 -22 31 0
53 65 90 0
8 13 16 0
4 9 86 0
24 44 47 0
-28 -36 -64 0
11 -84 90 0
3 -4 39 0
-12 24 -93 0
2 -40 -72 0
-5 75 77 0
35 -61 -73 0
-2 39 58 0
30 86 95 0
-15 44 -86 0
-49 -84 -89 0
36 41 -53 0
11 -50 -96 0
23 -36 -41 0
19 -78 83 0
-10 -73 -80 0
-34 -40 -81 0
-7 -11 -90 0
-4 22 26 0
-13 46 -98 0
59 -74 -98 0
78 83 -97 0
-9 85 -94 0
-35 38 -71 0
2 -7 62 0
21 -22 30 0
5 -47 -51 0
-14 -80 85 0
-73 76 -87 0
-40 53 93 0
-20 54 80 0
-1 21 -97 0
13 -60 -66 0
18 88 91 0
22 28 68 0
39 -55 -83 0
-67 93 98 0
-6 -13 51 0
-5 -48 -91 0
-26 -36 -74 0
-33 63 -84 0
20 -72 -85 0
3 -59 -83 0
-3 -46 94 0
47 57 85 0
11 87 89 0
-27 75 -86 0
-22 39 -53 0
28 59 -90 0
3 9 -88 0
62 77 85 0
7 -31 -38 0
-52 68 -82 0
44 -75 -94 0
10 -28 -42 0
-5 -37 -94 0
12 19 -46 0
-19 -47 -87 0
-44 60 -97 0
-10 55 78 0
58 67 -88 0
49 69 95 0
-22 36 92 0
-18 -35 -98 0
5 45 -79 0
-32 -77 -88 0
-6 -9 55 0
23 -70 -96 0
-12 -64 -88 0
8 75 87 0
36 47 52 0
-26 34 -96 0
47 -52 69 0
61 -72 98 0
-57 72 89 0
7 22 -94 0
-8 -98 -99 0
9 12 47 0
-14 -38 69 0
14 -32 44 0
16 35 41 0
-6 18 51 0
13 -48 75 0
-26 36 -94 0
24 37 -87 0
-39 -61 -80 0
-52 53 68 0
-14 -49 -97 0
19 -57 96 0
-8 -50 73 0
17 67 80 0
-24 49 50 0
-23 31 -73 0
29 30 49 0
63 77 90 0
30 47 77 0
35 -40 -67 0
1 -38 -59 0
59 75 -83 0
-60 89 -95 0
6 28 -69 0
31 47 51 0
74 80 -87 0
-36 -89 92 0
25 -58 85 0
-56 -63 -90 0
-19 64 85 0
-37 46 -89 0
15 -45 94 0
-76 -92 -97 0
-7 -73 94 0
45 -73 93 0
-1 29 -79 0
8 -49 82 0
-24 -47 84 0
-34 41 -79 0
7 41 -44 0
-17 30 -32 0
21 -34 -72 0
80 98 -100 0
28 54 -86 0
77 -91 94 0
25 -58 -86 0
11 -28 36 0
-7 92 93 0
-57 -77 -89 0
23 56 -84 0
19 75 -95 0
-49 50 53 0
-4 8 -31 0
-30 -76 -90 0
53 60 -70 0
-33 -64 70 0
-3 -20 32 0
6 -32 -35 0
40 -62 87 0
-13 38 -39 0
26 -37 -73 0
30 -66 -84 0
10 96 -100 0
34 -49 68 0
17 22 37 0
26 -54 -77 0
14 -41 51 0
37 45 -83 0
23 89 -97 0
-12 -40 -48 0
-35 51 73 0
-26 63 95 0
5 -20 -22 0
-3 -16 74 0
-47 65 72 0
-38 73 99 0
-24 60 84 0
-1 54 79 0
-1 70 84 0
2 5 -7 0
-19 -41 -85 0
32 -80 85 0
65 67 -80 0
1 -43 -70 0
47 -68 100 0
9 20 -68 0
2 -36 72 0
-19 78 98 0
36 -54 62 0
5 -13 19 0
-65 68 -84 0
-15 51 65 0
4 -16 -70 0
79 -81 -83 0
1 -81 85 0
-5 -54 -74 0
-7 86 89 0
-24 -25 88 0
2 36 81 0
-47 63 71 0
10 32 53 0
-27 42 84 0
-5 84 86 0
37 -49 -75 0
69 73 -96 0
-4 -52 -87 0
35 67 -84 0
-22 -72 -97 0
7 56 -80 0
-9 31 -64 0
3 -36 -53 0
21 29 41 0
-22 -37 -95 0
39 82 92 0
-48 58 -79 0
-32 -84 -87 0
-14 -15 -43 0
73 76 -87 0
-18 19 -96 0
85 -88 98 0
41 -77 -97 0
35 -41 -52 0
-18 23 50 0
-12 42 -63 0
-16 -38 54 0
47 70 71 0
-32 52 -61 0
-60 73 -74 0
78 -87 93 0
-22 -23 -77 0
23 26 85 0
29 -63 86 0
1 49 69 0
2 -36 -56 0
-14 -24 -70 0
-82 90 99 0
34 -77 -90 0
13 -61 68 0
-13 -41 44 0
-84 86 -90 0
-16 -87 100 0
-41 -51 -60 0
-3 -45 100 0
-49 -70 95 0
-10 74 -83 0
-49 -50 -95 0
7 -69 -89 0
38 -73 -94 0
-28 33 76 0
-54 -91 -94 0
11 18 -61 0
-44 62 98 0
36 39 84 0
26 -36 -38 0
44 -73 -77 0
11 -18 31 0
-3 17 32 0
23 88 100 0
52 -62 -65 0
13 56 73 0
-56 77 95 0
-48 -80 94 0
-10 -32 45 0
19 -20 33 0
17 -71 -93 0
8 -21 98 0
-35 45 -65 0
53 -57 -95 0
-36 -64 -75 0
8 -55 100 0
-6 22 -28 0
6 -18 82 0
18 24 40 0
-10 -16 -47 0
-61 68 88 0
30 -31 -97 0
-5 54 -75 0
-3 -38 -59 0
17 -72 99 0
-6 7 85 0
1 75 -97 0
-26 53 -96 0
-31 58 -60 0
-30 -48 78 0
-3 -65 -86 0
3 78 -99 0
-12 -52 76 0
43 52 -84 0
12 -19 -92 0
-57 62 96 0
-21 66 -75 0
-56 -68 -95 0
-20 31 -95 0
28 -39 89 0
41 -80 -91 0
40 -65 73 0
16 22 67 0
7 61 -84 0
25 -31 45 0
46 66 84 0
11 27 84 0
51 66 71 0
-40 -51 -87 0
10 60 80 0
9 11 55 0
29 -36 96 0
52 60 90 0
-24 -49 61 0
4 -17 -92 0
-2 -40 -61 0
-7 30 56 0
4 10 -61 0
18 66 75 0
9 -46 -97 0
-27 -63 65 0
-36 -38 40 0
-9 -59 82 0
-36 -49 -92 0
-23 61 62 0
-23 -66 75 0
-24 -40 -74 0
-37 63 74 0
8 -48 98 0
39 -46 -90 0
-69 -70 75 0
6 15 -23 0
-22 33 34 0
18 -45 65 0
16 -45 80 0
31 -33 -54 0
-4 37 -60 0
-29 -52 64 0
42 44 66 0
-39 70 -99 0
-18 -27 68 0
-15 -33 51 0
-18 33 34 0
-1 -4 -30 0
-6 37 -79 0
56 -75 90 0
41 -60 83 0
-12 -58 77 0
28 67 -75 0
31 38 -74 0
7 39 -69 0
-39 -61 90 0
46 -56 -70 0
48 -56 70 0
2 -35 -53 0
-9 -17 91 0
35 56 -95 0
33 43 57 0
-43 56 91 0
5 70 91 0
8 33 85 0
-59 -75 81 0
-31 74 82 0
-29 -80 -93 0
31 32 56 0
1 4 71 0
17 89 -96 0
-17 -63 -84 0
-31 -33 71 0
-28 -56 92 0
30 -70 94 0
-9 97 -98 0
-13 26 72 0
77 79 -90 0
-42 44 84 0
35 -48 -97 0
25 -27 98 0
11 50 -95 0
51 -79 -95 0
-54 68 -74 0
59 63 -78 0
-46 -67 100 0
-47 -71 -88 0
-64 -69 -95 0
-59 81 -99 0
-7 47 98 0
39 -62 76 0
40 56 -66 0
2 -60 -83 0
-11 39 50 0
-48 -70 96 0
-5 53 81 0
-73 -84 -98 0
-67 -68 70 0
-59 76 86 0
-7 -19 67 0
-74 -78 -79 0
-18 -56 -97 0
-51 -57 -67 0
2 -28 -56 0
15 -42 -54 0
19 -41 -98 0
25 66 -86 0
8 63 -85 0
4 -27 -67 0
40 -63 -72 0
75 87 -99 0
-19 24 93 0
-6 80 90 0
-17 54 83 0
-54 -77 79 0
5 75 90 0
33 -40 91 0
29 -61 68 0
-51 59 -90 0
-10 11 47 0
-6 -72 -74 0
12 22 76 0
-31 -87 92 0
-48 -59 -80 0

