c Generated by rand.py 50 250 3 107876
c Generator source: https://github.com/aaw/sat/blob/master/gen/rand.py
p cnf 50 250
12 -20 -34 0
11 19 -37 0
-14 -31 50 0
7 11 33 0
-21 28 39 0
-13 14 49 0
20 34 39 0
-33 37 -50 0
-16 -22 -48 0
-6 30 -46 0
21 30 -45 0
-7 -18 20 0
23 -33 43 0
-17 24 31 0
-13 -36 44 0
-8 -13 -50 0
13 35 -50 0
19 36 -48 0
4 39 -45 0
18 -31 45 0
-17 29 -38 0
17 27 -41 0
-8 -11 -16 0
1 3 -45 0
-11 -23 49 0
13 32 -45 0
26 -38 47 0
3 8 48 0
6 22 -42 0
14 41 -42 0
-20 30 -41 0
16 -30 38 0
-10 -12 25 0
5 -23 -33 0
8 29 40 0
-17 -26 -35 0
-26 34 -48 0
1 7 -28 0
-14 -37 -41 0
12 21 25 0
14 -30 -47 0
14 19 -45 0
4 25 39 0
21 -41 -45 0
-12 27 29 0
-20 29 30 0
-11 45 49 0
-21 -25 -32 0
5 -36 -37 0
12 -29 36 0
-26 -37 42 0
6 -21 36 0
12 26 -34 0
36 -41 -50 0
23 -34 38 0
-31 -32 -35 0
21 38 50 0
15 34 -47 0
4 -26 50 0
-3 -4 24 0
-2 36 -42 0
-2 42 48 0
22 25 -46 0
16 19 48 0
18 -19 47 0
3 4 -22 0
10 -12 -40 0
-32 41 43 0
9 15 23 0
-6 7 14 0
-3 -11 -42 0
2 -16 25 0
15 33 -37 0
-23 -32 -43 0
-4 -11 -47 0
-14 -26 40 0
2 -33 42 0
23 39 41 0
26 44 -48 0
8 40 -46 0
2 9 19 0
39 -46 -49 0
14 -27 -36 0
-2 8 44 0
-3 -10 29 0
-1 -20 -50 0
-7 10 26 0
8 21 48 0
-33 -39 -50 0
-14 -17 45 0
3 -15 45 0
8 -27 29 0
27 -30 -50 0
-13 -25 30 0
-9 25 -30 0
9 -30 36 0
13 -15 49 0
26 31 39 0
1 -7 21 0
-22 -25 -44 0
42 -45 -48 0
42 44 -50 0
-3 -23 26 0
-9 35 -38 0
20 -37 -46 0
23 36 42 0
-12 16 -37 0
-12 -28 43 0
17 27 32 0
-31 34 46 0
2 35 48 0
-14 -33 44 0
-7 17 26 0
10 14 -15 0
3 7 49 0
15 20 -44 0
38 -45 -46 0
-14 -18 -38 0
-9 30 -36 0
-8 -15 -22 0
-5 -6 -9 0
17 38 44 0
-16 32 42 0
3 26 -30 0
1 -43 -50 0
-1 -27 32 0
3 41 49 0
13 17 29 0
19 -31 38 0
20 35 48 0
20 -22 -36 0
-11 -25 49 0
27 29 -43 0
11 17 32 0
11 -34 37 0
14 -39 46 0
-1 4 -19 0
8 9 11 0
-29 -36 47 0
5 13 33 0
32 -38 39 0
-17 -40 -44 0
27 32 41 0
-15 32 -34 0
3 -22 -29 0
-2 -4 34 0
-6 38 45 0
22 -26 -44 0
27 34 39 0
-29 -46 -49 0
11 -25 49 0
13 -25 28 0
-34 -40 44 0
-1 -18 -37 0
10 -13 18 0
8 16 -25 0
-14 -35 46 0
-28 29 46 0
21 -41 -50 0
-10 -19 42 0
22 23 47 0
10 -15 38 0
-2 -14 -39 0
18 28 -38 0
15 -25 -34 0
-2 -11 -44 0
2 16 49 0
-5 -19 -39 0
-10 -38 44 0
14 45 48 0
2 37 48 0
-11 12 24 0
3 -10 -45 0
-2 -28 -35 0
17 38 -42 0
-15 44 -45 0
-1 -18 -35 0
30 -36 49 0
-5 24 38 0
-1 -30 -36 0
6 40 -41 0
10 20 46 0
-27 33 49 0
-14 32 50 0
1 -36 41 0
21 -39 48 0
-40 -45 -49 0
-13 -27 36 0
9 11 40 0
-15 -16 -23 0
-29 -34 -36 0
-26 27 -29 0
13 30 -46 0
23 -40 -44 0
39 40 49 0
-7 -43 45 0
-24 -30 -46 0
-16 -36 48 0
-27 32 34 0
-25 -27 35 0
-11 27 29 0
29 32 33 0
-23 -32 -38 0
5 23 32 0
-14 32 -34 0
14 31 -37 0
-1 30 46 0
-9 -27 50 0
25 30 -33 0
40 -43 -48 0
7 8 48 0
-20 -32 -44 0
-4 -5 13 0
15 -30 -46 0
-10 -12 -47 0
-1 -6 -48 0
-17 -41 47 0
-2 -34 -48 0
19 -20 42 0
6 -22 30 0
-12 25 -39 0
21 -35 45 0
-11 -26 -40 0
-18 -31 -41 0
5 -36 -49 0
25 34 46 0
-10 -25 -28 0
32 -37 49 0
8 9 31 0
22 28 39 0
-1 -2 -43 0
-32 -34 -40 0
-23 28 -42 0
-5 21 24 0
19 21 40 0
-22 -23 -28 0
16 25 45 0
31 -43 -49 0
-10 20 41 0
-9 -18 -30 0
-16 -28 30 0
42 45 -46 0
15 18 22 0
7 45 -48 0
17 32 41 0
21 -22 -42 0
20 25 49 0
-18 24 37 0
7 -13 49 0
-3 -20 36 0

