c Generated by rand.py 50 250 3 681138
c Generator source: https://github.com/aaw/sat/blob/master/gen/rand.py
p cnf 50 250
19 -25 -44 0
-2 -33 -36 0
-3 44 -46 0
-6 -23 28 0
10 13 -23 0
22 25 -35 0
-1 27 -45 0
37 -38 -41 0
14 -19 -21 0
-36 -39 -47 0
-6 -20 -36 0
-21 39 -44 0
-27 31 34 0
20 36 -50 0
-3 31 40 0
15 -21 44 0
1 10 26 0
-10 11 -37 0
-1 15 -46 0
3 -31 48 0
10 11 22 0
9 -22 33 0
17 -26 39 0
-10 37 49 0
12 -23 -50 0
20 45 49 0
-18 -23 41 0
-2 -3 -21 0
-16 -35 -42 0
-22 27 28 0
-1 -21 39 0
-21 -34 -45 0
-34 -44 -50 0
19 32 -49 0
2 -38 -39 0
11 22 31 0
19 -33 37 0
1 -11 -39 0
-6 -11 -43 0
32 -43 -48 0
7 33 35 0
-3 29 38 0
20 22 -49 0
12 -28 -43 0
2 -31 40 0
-27 32 -39 0
-2 -7 -37 0
-20 24 -30 0
28 36 -47 0
17 -25 35 0
-5 29 35 0
7 29 44 0
18 -43 46 0
4 31 -34 0
13 21 46 0
-4 8 -48 0
-16 34 -39 0
8 15 32 0
20 27 50 0
25 -37 -45 0
3 13 22 0
23 -37 47 0
2 33 -44 0
-20 36 40 0
18 24 27 0
25 47 49 0
18 -36 40 0
4 10 36 0
-2 -41 49 0
7 28 49 0
30 -43 -47 0
15 23 32 0
-25 -37 38 0
-5 -8 -19 0
-2 15 50 0
10 -25 -44 0
7 -32 -33 0
-3 -11 17 0
5 -37 46 0
7 16 36 0
-4 -18 38 0
20 23 -24 0
-2 21 37 0
12 42 49 0
16 -21 36 0
16 19 -28 0
4 5 48 0
-2 13 47 0
5 -10 -41 0
6 -8 20 0
-3 -7 42 0
16 37 -42 0
30 34 35 0
-17 21 -39 0
1 3 -16 0
-14 21 -29 0
9 19 23 0
34 41 -48 0
26 39 46 0
-20 -27 -35 0
-30 -39 50 0
-7 -22 -38 0
-1 -9 43 0
20 -21 46 0
16 -22 -37 0
-3 5 -43 0
-21 -38 47 0
-19 32 -35 0
19 30 -43 0
12 -39 46 0
4 -6 -36 0
-9 -21 36 0
1 18 21 0
8 46 47 0
4 -19 44 0
-19 27 32 0
-13 45 -49 0
-8 -12 -43 0
6 27 45 0
12 35 -48 0
19 23 47 0
24 -26 -50 0
-7 26 -33 0
28 34 44 0
-8 -12 -30 0
-27 -36 -43 0
-8 -13 22 0
25 -44 45 0
21 27 38 0
-11 -19 -32 0
-20 23 39 0
4 18 -29 0
27 30 -39 0
4 -16 -29 0
-11 -20 -24 0
-23 26 -40 0
-22 -28 -43 0
-12 -19 -25 0
24 39 49 0
-1 -18 43 0
2 37 -44 0
-3 -13 -26 0
-18 34 39 0
-2 10 14 0
-1 -5 -24 0
21 29 48 0
18 -19 45 0
-18 29 -45 0
4 -16 -28 0
28 -37 49 0
-19 -22 49 0
21 -25 -50 0
-30 35 46 0
-16 -41 -47 0
3 -15 29 0
-2 -32 -49 0
4 24 -36 0
-13 20 -42 0
-7 20 -49 0
7 -24 41 0
16 45 -47 0
-1 -40 -47 0
-8 37 45 0
27 -44 49 0
3 -18 37 0
-11 -18 30 0
-7 -30 -39 0
-3 27 -48 0
12 -30 -41 0
-31 -44 45 0
-19 -20 -38 0
-9 -35 -49 0
24 -42 47 0
10 -27 -34 0
-16 36 -46 0
1 35 49 0
11 38 -44 0
1 -5 14 0
-4 -41 -42 0
38 -42 -50 0
-5 11 47 0
4 27 -34 0
12 40 48 0
-35 -39 48 0
7 24 45 0
24 -28 -48 0
-15 -25 -32 0
1 -3 -22 0
-7 8 -9 0
7 28 41 0
-16 20 32 0
-17 26 37 0
-12 22 -48 0
4 8 -43 0
-17 -23 -38 0
-21 35 45 0
-21 22 -47 0
18 28 -46 0
11 -14 25 0
26 35 -39 0
-26 31 -38 0
21 33 47 0
-39 47 -48 0
-11 15 -27 0
-9 -16 -43 0
4 -22 32 0
5 10 29 0
-14 -29 -45 0
19 -20 -25 0
-15 35 48 0
1 11 -21 0
-11 25 35 0
26 -33 -45 0
-7 -10 -43 0
-4 -16 37 0
2 17 -38 0
-27 41 -49 0
31 -32 35 0
2 -32 36 0
5 11 -20 0
20 -35 -50 0
31 -40 -41 0
7 17 25 0
24 36 -41 0
-28 44 45 0
-24 26 47 0
3 -10 34 0
-4 25 -40 0
-14 -16 -19 0
7 34 37 0
-20 -21 -27 0
1 -31 43 0
23 -37 41 0
-9 -19 34 0
5 -11 42 0
12 18 -19 0
5 -29 37 0
26 36 46 0
13 22 28 0
1 -29 -37 0
1 5 -19 0
14 -37 -50 0
-22 -34 -41 0
11 -37 -40 0
22 27 -45 0
36 -40 -43 0
9 36 45 0
23 38 48 0
-3 11 42 0
6 16 -41 0

