c Generated by rand.py 100 500 3 86353
c Generator source: https://github.com/aaw/sat/blob/master/gen/rand.py
p cnf 100 500
6 -41 84 0
4 -21 -28 0
58 70 81 0
31 59 60 0
-23 -34 69 0
-10 -15 -86 0
-52 65 68 0
7 8 59 0
-35 41 47 0
74 76 -83 0
-19 -35 51 0
18 51 61 0
5 24 94 0
52 -91 96 0
-33 86 -95 0
-14 -41 -86 0
-17 -26 97 0
-22 -49 75 0
62 88 -98 0
-59 81 -86 0
39 57 -68 0
19 -41 -79 0
1 51 -82 0
-21 -85 -92 0
-13 -23 -71 0
-9 42 100 0
13 62 75 0
-42 62 -89 0
-41 50 -94 0
25 58 73 0
10 -50 53 0
-13 -47 74 0
-38 -88 -94 0
60 85 100 0
28 -40 54 0
8 10 27 0
-36 -68 100 0
22 51 67 0
16 -31 -91 0
-58 -78 79 0
9 57 69 0
27 -52 -62 0
-2 61 88 0
14 23 78 0
-16 -28 -59 0
83 -90 98 0
-1 14 91 0
47 66 -97 0
45 -65 -91 0
-8 -35 83 0
-32 -33 -41 0
31 -41 95 0
-48 -54 72 0
-32 -43 -44 0
-15 27 78 0
14 -91 -93 0
-10 87 -98 0
10 -54 -99 0
13 -41 -92 0
20 30 -73 0
-16 63 -81 0
-32 57 -95 0
36 53 -98 0
-55 76 -95 0
-1 21 88 0
-8 17 33 0
50 -55 -94 0
55 -67 76 0
-35 -55 -99 0
-75 86 -93 0
-12 36 66 0
-57 -66 -97 0
-15 75 90 0
34 -90 96 0
-40 -51 76 0
3 27 88 0
-16 31 58 0
12 -17 63 0
-12 -37 96 0
19 -21 33 0
-5 12 -77 0
42 59 81 0
1 -23 85 0
34 67 -73 0
-51 63 93 0
-11 -58 -75 0
-9 39 -58 0
-12 44 -62 0
53 -55 -83 0
-12 59 -99 0
-32 -60 -92 0
-6 -26 -52 0
1 -4 -33 0
-6 48 53 0
-18 45 67 0
5 -17 33 0
-9 63 -64 0
66 -81 94 0
-43 91 92 0
-16 68 -98 0
5 54 -93 0
-45 -60 -69 0
-9 -25 30 0
4 44 88 0
1 -45 -90 0
17 -67 -94 0
-60 66 89 0
36 -50 95 0
79 -96 100 0
13 70 89 0
44 -55 -66 0
5 32 64 0
5 -67 -84 0
-7 32 -78 0
59 -96 100 0
-1 33 35 0
-57 66 78 0
-20 -26 88 0
-23 26 -61 0
54 74 97 0
20 -43 -70 0
36 -72 89 0
66 74 -78 0
-20 -28 95 0
-9 -54 86 0
-19 -24 -64 0
-41 -54 -61 0
21 61 77 0
37 63 70 0
-48 88 -94 0
51 -78 -82 0
31 -33 -89 0
12 58 60 0
24 -68 87 0
1 -68 -99 0
5 -43 -95 0
-82 -95 -96 0
-35 55 -83 0
41 -53 86 0
-16 -46 72 0
-13 17 66 0
-10 49 -77 0
-2 -61 -63 0
-29 -80 87 0
-18 55 68 0
65 -66 98 0
-12 42 -79 0
-69 -70 93 0
47 -51 98 0
10 -20 -61 0
1 -23 -65 0
52 66 -76 0
30 -69 -92 0
-8 -54 58 0
-29 -74 -79 0
-22 72 93 0
-38 -63 -72 0
51 58 -59 0
-21 -31 35 0
-3 44 97 0
-35 80 -86 0
32 -72 -90 0
8 -11 71 0
25 30 82 0
7 -10 38 0
-13 88 -93 0
3 -16 84 0
-11 46 -92 0
-25 -53 68 0
-17 -70 77 0
-42 63 -66 0
14 -67 90 0
1 19 -35 0
-27 92 96 0
-7 -59 60 0
-60 61 -95 0
-5 34 -77 0
16 -54 92 0
39 -44 -79 0
5 41 77 0
4 12 51 0
-6 27 -28 0
34 72 -75 0
-6 -19 -92 0
8 41 56 0
19 29 -100 0
15 -37 -46 0
29 46 -57 0
72 77 -82 0
8 32 34 0
-8 -12 -48 0
7 -24 81 0
-32 -66 75 0
-13 24 56 0
29 38 76 0
46 60 -99 0
77 -82 90 0
65 -87 -100 0
-32 36 -98 0
38 63 -80 0
32 -78 -92 0
-23 26 -100 0
-9 -11 -22 0
27 -51 67 0
-29 -56 -75 0
-15 45 -87 0
-1 -38 56 0
5 -16 -29 0
-14 -29 -69 0
17 30 -61 0
26 55 -76 0
14 -36 -100 0
57 -61 -81 0
15 23 -76 0
3 38 -41 0
8 27 69 0
53 76 -79 0
33 -53 -57 0
9 40 -76 0
44 -68 80 0
-14 44 84 0
-52 -63 -78 0
-9 52 -87 0
37 -42 73 0
28 30 -50 0
40 77 96 0
65 71 88 0
32 51 80 0
-9 21 74 0
41 -51 -74 0
-53 70 -92 0
3 10 82 0
-23 -32 58 0
57 -70 -79 0
-63 88 95 0
-7 12 99 0
5 -30 -71 0
-36 39 -76 0
5 29 69 0
15 -23 -59 0
-19 -76 88 0
54 63 94 0
76 -82 97 0
-38 -50 63 0
-12 -52 -98 0
13 -79 93 0
2 41 91 0
-12 39 60 0
-14 68 93 0
-20 -39 66 0
-58 -91 98 0
-8 63 -72 0
-13 -39 49 0
-21 44 82 0
16 -29 -59 0
1 61 -94 0
58 -59 91 0
27 -41 -57 0
-45 53 -58 0
11 -66 88 0
-7 -28 29 0
5 -79 -85 0
-58 -60 -83 0
-37 -42 84 0
44 76 95 0
12 71 100 0
20 43 87 0
-4 7 -56 0
4 88 99 0
1 19 -57 0
21 59 -71 0
34 49 83 0
1 -32 -57 0
8 -10 -12 0
1 6 38 0
-5 -30 97 0
-17 -25 59 0
-5 -49 57 0
-15 16 -65 0
-19 47 50 0
-18 -52 96 0
39 -78 -80 0
-29 35 79 0
-35 38 95 0
4 10 44 0
10 -25 -78 0
-19 -29 58 0
-40 98 100 0
-2 -47 53 0
-37 55 -94 0
17 60 -77 0
8 52 -94 0
-23 33 -48 0
63 -86 -91 0
-36 -62 -73 0
42 -45 88 0
43 -47 -69 0
53 78 -83 0
-25 47 49 0
7 53 -55 0
3 33 -87 0
-17 73 -98 0
3 12 49 0
4 9 -77 0
78 79 -89 0
-19 75 -94 0
-22 65 72 0
-7 28 80 0
-56 67 89 0
-14 -17 -87 0
63 -81 -94 0
-26 -72 -95 0
3 60 -97 0
2 43 -51 0
6 19 -56 0
-12 18 -53 0
22 -93 -100 0
-47 73 76 0
13 -53 -59 0
-59 79 -99 0
15 28 -81 0
11 -28 50 0
-27 -33 72 0
-64 -66 -71 0
6 -86 98 0
-28 56 -85 0
2 -33 -70 0
-5 -19 -33 0
-14 -18 -47 0
-24 -33 -73 0
-50 65 76 0
13 -18 66 0
4 -28 31 0
-24 59 -65 0
36 74 83 0
10 32 45 0
24 -27 -92 0
20 54 -68 0
-7 74 -99 0
-15 -44 51 0
-24 38 75 0
60 63 87 0
-15 -21 66 0
61 -87 96 0
16 26 55 0
-60 -66 70 0
2 33 55 0
-8 -29 89 0
-51 71 88 0
6 -17 -92 0
-22 -33 -35 0
7 14 22 0
-31 -36 46 0
58 63 78 0
-1 -59 71 0
-34 -38 -59 0
33 -50 -77 0
-35 41 77 0
12 65 -77 0
-5 -46 69 0
-20 26 64 0
33 42 -84 0
27 62 69 0
-17 -49 -99 0
-3 35 -50 0
17 -40 -94 0
4 -25 75 0
3 39 -60 0
24 42 89 0
-12 -87 -95 0
-28 46 -61 0
18 39 89 0
-46 -49 -75 0
-5 50 -56 0
12 -65 77 0
16 -73 76 0
51 -90 97 0
20 73 95 0
-10 -20 -87 0
1 -50 52 0
-5 44 -59 0
-19 -37 48 0
17 -43 -61 0
-60 -74 -98 0
-18 58 59 0
15 31 -96 0
62 73 93 0
8 -10 -42 0
60 79 -86 0
22 -59 -73 0
-29 36 -72 0
-25 -50 64 0
-40 74 -97 0
-26 54 -90 0
-31 73 94 0
-16 39 58 0
-37 38 89 0
23 29 57 0
-9 -40 95 0
-15 17 -100 0
17 -52 69 0
2 48 79 0
36 -37 78 0
28 -37 69 0
-5 -10 -37 0
-11 -32 -34 0
54 -74 94 0
61 -62 -91 0
-3 29 71 0
59 -82 99 0
73 -75 -89 0
-24 31 78 0
85 98 -99 0
20 23 47 0
11 -63 64 0
-26 56 -88 0
12 32 50 0
51 92 94 0
-49 56 67 0
37 -83 -92 0
-71 -94 -96 0
-15 -29 -60 0
-69 -71 78 0
-25 -30 57 0
-55 56 95 0
-17 -43 100 0
8 54 -99 0
-30 40 -64 0
-19 -72 91 0
56 62 -97 0
-13 -38 53 0
-37 -59 -86 0
-26 28 -81 0
-68 69 88 0
-6 -38 -72 0
-36 -59 61 0
-56 59 -94 0
-28 -47 92 0
-46 67 -70 0
-19 -26 71 0
-23 40 93 0
16 -62 -84 0
-17 19 58 0
25 -40 -85 0
11 80 -94 0
-54 64 -84 0
13 69 96 0
25 -35 -58 0
-39 -47 61 0
47 -62 -69 0
62 83 90 0
23 -66 -72 0
48 64 91 0
33 44 91 0
2 17 70 0
31 -62 71 0
39 86 98 0
4 19 39 0
12 -42 65 0
-52 -63 -73 0
20 31 65 0
17 -61 -68 0
-24 -46 79 0
-25 70 -75 0
5 17 100 0
6 66 88 0
-33 -38 78 0
-19 30 -92 0
-18 86 -94 0
-7 66 -98 0
-68 72 -83 0
26 -36 99 0
-40 50 85 0
3 -54 98 0
-50 52 79 0
-40 -64 -90 0
14 81 -98 0
-5 -10 -80 0
-45 57 74 0
13 -32 -59 0
-41 -85 -100 0
-28 -48 66 0
30 62 -71 0
8 54 80 0
-67 93 -94 0
53 -54 57 0
-16 -43 -82 0
61 -73 80 0
-19 -40 93 0
-16 -27 -80 0
-9 -16 80 0
54 -60 90 0
-8 -22 99 0
23 33 -93 0
-1 35 -100 0
24 -64 -83 0
1 -23 87 0
-28 -60 -88 0
-68 73 75 0
-4 -47 98 0

