c Generated by rand.py 100 500 3 39019
c Generator source: https://github.com/aaw/sat/blob/master/gen/rand.py
p cnf 100 500
-53 54 -81 0
44 72 99 0
49 -72 -98 0
32 -53 74 0
2 14 -91 0
20 -78 -84 0
-22 34 -88 0
-10 -76 94 0
28 -31 98 0
-5 34 -61 0
29 50 81 0
-74 75 78 0
-28 51 -52 0
-10 19 -60 0
62 80 87 0
4 -85 -86 0
-59 -82 -93 0
47 90 -97 0
-3 32 66 0
38 43 -66 0
-30 60 81 0
34 -38 -67 0
27 -89 -97 0
38 64 -72 0
30 -54 -99 0
-3 -19 -63 0
-26 -35 94 0
-27 -55 -58 0
1 25 42 0
11 -30 -88 0
-9 12 -97 0
-13 -16 -51 0
-12 -38 -79 0
-9 36 99 0
79 -85 -87 0
-48 -87 -92 0
-8 10 78 0
-30 46 55 0
-1 12 67 0
3 9 -81 0
54 60 71 0
-34 67 -75 0
20 36 -88 0
-4 10 -55 0
-62 -70 -81 0
-46 54 82 0
-10 89 93 0
3 75 -92 0
34 -46 48 0
-19 49 -66 0
5 -24 -86 0
-73 86 -93 0
13 -32 -55 0
65 -69 -99 0
29 57 -93 0
-7 42 71 0
-41 76 85 0
-16 -25 -76 0
-2 -53 -96 0
36 -78 94 0
-11 -68 -94 0
4 -23 -92 0
-4 -61 70 0
-67 -88 98 0
-18 27 -65 0
17 -27 38 0
38 -54 79 0
20 -71 -80 0
-38 -77 83 0
-58 -60 -91 0
-49 60 99 0
-6 21 71 0
5 30 -84 0
19 37 52 0
-16 90 -95 0
11 -65 -68 0
1 80 -93 0
27 -49 -96 0
9 -28 -73 0
18 -56 -95 0
-24 -57 -77 0
3 6 -27 0
25 78 -81 0
1 17 -96 0
-38 -70 71 0
15 -60 68 0
-8 15 -100 0
-17 -66 -97 0
-15 18 92 0
-1 -17 -58 0
23 49 -100 0
3 -22 -90 0
-17 -37 -64 0
-15 32 45 0
-24 60 -62 0
18 24 -26 0
1 -52 -76 0
-53 -57 -73 0
46 -91 -98 0
-3 38 87 0
16 -36 41 0
8 35 97 0
-4 -19 -45 0
42 68 85 0
-1 77 -96 0
-5 -40 -87 0
11 -45 -82 0
-14 16 98 0
55 -70 -95 0
43 53 58 0
-9 52 -65 0
-9 53 78 0
-2 -41 55 0
-18 80 92 0
17 81 91 0
5 24 -76 0
-49 -50 58 0
6 -31 -75 0
-8 -11 -62 0
50 -63 -75 0
-8 14 -22 0
41 -60 -96 0
-8 -13 66 0
18 69 -95 0
14 39 -46 0
-19 -31 -77 0
29 58 84 0
13 40 -44 0
-51 62 -88 0
57 81 -100 0
-52 63 78 0
24 -28 -71 0
-8 38 -97 0
-17 -35 50 0
10 66 89 0
26 43 47 0
-54 -61 -84 0
41 58 -73 0
-4 52 -75 0
38 -41 -74 0
-4 17 30 0
1 18 -91 0
-9 -76 100 0
-60 -78 87 0
-13 -15 -34 0
3 -41 -97 0
28 -89 100 0
26 -65 -74 0
-19 -22 -88 0
23 35 41 0
21 -34 50 0
-80 -83 -84 0
-9 45 54 0
-10 29 -44 0
74 -82 89 0
-6 68 70 0
-27 29 -83 0
33 41 73 0
36 41 -68 0
-44 -55 -57 0
7 -56 58 0
3 23 80 0
-12 -32 -89 0
14 -57 83 0
66 -77 -94 0
-5 13 29 0
3 -54 -93 0
-11 -29 -33 0
-5 69 -76 0
66 84 -85 0
72 -74 -90 0
16 -70 -80 0
-48 78 -83 0
57 59 72 0
-3 -36 54 0
-7 -33 -70 0
-17 49 52 0
24 38 -90 0
-5 -26 -71 0
-32 -52 81 0
-7 47 -58 0
-52 66 98 0
-37 -82 -96 0
6 24 -43 0
71 74 89 0
26 52 84 0
13 57 78 0
74 -78 -100 0
-6 54 -58 0
17 -72 81 0
45 -66 -82 0
-6 15 20 0
22 91 -92 0
-1 -40 51 0
14 -16 -83 0
-3 -31 53 0
8 -24 -43 0
-14 22 63 0
39 64 87 0
51 -62 -94 0
-9 26 56 0
-34 -78 83 0
-58 -81 -96 0
-1 -20 -91 0
21 -23 -97 0
-5 11 -47 0
-1 76 89 0
39 79 -98 0
14 -83 -92 0
1 -24 55 0
39 -72 -97 0
-5 -40 -90 0
53 76 100 0
4 -25 -28 0
-51 73 -75 0
-22 -65 -80 0
1 -16 -69 0
-32 -49 -98 0
37 84 85 0
20 -47 92 0
-31 59 -62 0
22 27 -72 0
37 -51 89 0
24 68 -99 0
-7 35 -73 0
10 15 -98 0
15 -26 64 0
-24 -29 -59 0
18 53 88 0
-3 49 82 0
-15 -42 -66 0
77 78 99 0
-5 18 85 0
-33 54 72 0
53 83 98 0
-60 -62 -81 0
-17 -71 -77 0
-28 -45 61 0
57 -74 -88 0
-33 -39 -50 0
-5 13 -86 0
-23 86 99 0
-5 -72 73 0
-14 -26 67 0
62 -85 -99 0
-34 45 91 0
-10 25 -98 0
10 85 93 0
48 72 99 0
2 -68 95 0
-13 43 81 0
25 61 80 0
-70 88 89 0
-4 -57 -96 0
4 28 56 0
-26 -33 50 0
27 91 93 0
1 3 85 0
61 67 -86 0
-63 -69 99 0
-33 44 59 0
-49 84 86 0
-4 41 76 0
-46 -59 -100 0
-19 -50 79 0
-48 -51 -78 0
-22 -25 82 0
7 43 -63 0
60 -70 -84 0
-21 -97 100 0
-59 92 95 0
21 -31 -58 0
-39 98 99 0
57 75 95 0
59 86 90 0
-31 37 76 0
7 47 78 0
14 30 -76 0
-13 82 88 0
-10 -11 33 0
-19 -34 -53 0
-1 -35 52 0
41 70 91 0
-8 -46 81 0
50 -63 71 0
-29 30 -42 0
53 70 -75 0
15 31 -67 0
27 55 -66 0
14 60 95 0
-2 75 77 0
12 16 51 0
5 -23 49 0
11 31 -95 0
-16 -47 -87 0
-8 14 50 0
-17 -76 -83 0
14 29 -59 0
-2 60 71 0
5 -12 46 0
-14 38 -67 0
-23 33 -91 0
13 46 -84 0
9 85 -96 0
44 -67 69 0
-33 -37 -56 0
8 -36 -47 0
-3 -57 71 0
14 27 38 0
-1 29 45 0
11 37 61 0
-6 41 70 0
52 -67 -94 0
-15 -34 -35 0
-21 -43 99 0
19 -58 79 0
-6 61 -80 0
8 -59 -62 0
56 -97 99 0
-20 -76 77 0
-15 -50 89 0
-1 -70 83 0
-12 65 81 0
-8 51 71 0
31 55 -96 0
-14 -44 82 0
86 98 -99 0
-1 -64 90 0
-5 33 -84 0
54 63 81 0
56 77 80 0
2 5 10 0
-28 91 -96 0
-35 40 -80 0
-5 -6 52 0
-14 17 -58 0
72 90 -94 0
-77 79 80 0
27 59 81 0
-6 -85 89 0
9 56 87 0
26 77 -81 0
-70 -84 -94 0
4 -22 -61 0
-18 -96 -98 0
11 -36 48 0
-8 18 -62 0
-42 64 84 0
-33 63 89 0
-42 58 83 0
8 69 92 0
59 67 -84 0
2 5 -19 0
-8 61 -69 0
-6 -64 -78 0
12 -53 -83 0
-52 -61 91 0
-1 -44 80 0
-8 -44 -79 0
-5 -46 -69 0
-16 -22 68 0
-3 34 -59 0
-18 20 -56 0
-39 -59 -95 0
-44 -45 -64 0
-39 78 -89 0
35 -85 95 0
-10 50 -85 0
-19 57 85 0
60 69 85 0
5 -9 99 0
5 -19 -88 0
44 59 -78 0
-25 60 -82 0
-13 46 -57 0
30 -37 -90 0
10 30 -93 0
59 -90 100 0
10 32 -46 0
-12 -16 -97 0
30 55 -66 0
-5 -31 32 0
-6 -57 91 0
9 -60 68 0
-40 49 50 0
3 31 43 0
-4 14 39 0
31 -45 -88 0
-18 -66 -92 0
-40 68 -89 0
-31 -63 98 0
-34 -87 91 0
10 -46 -66 0
3 4 96 0
-7 35 72 0
-11 -42 -100 0
-12 -67 93 0
46 -78 83 0
2 -26 64 0
3 35 92 0
-22 85 -92 0
-22 -71 85 0
17 -48 82 0
-34 58 -84 0
16 -40 -63 0
13 32 -75 0
66 -68 -91 0
-4 6 20 0
19 -53 54 0
-32 33 -49 0
58 69 -99 0
2 -11 34 0
-19 -45 -97 0
3 -8 93 0
-2 -63 -100 0
-24 45 49 0
-56 65 80 0
-1 94 -96 0
-21 64 -97 0
-41 -97 99 0
43 55 -63 0
41 -59 -80 0
-51 -72 99 0
-30 -41 -60 0
27 46 98 0
-17 -24 -75 0
26 -30 -56 0
53 71 74 0
14 55 99 0
-52 -88 -91 0
-4 -14 -40 0
29 79 81 0
-12 34 53 0
-26 -64 99 0
-17 -19 58 0
-78 82 93 0
-9 -69 -88 0
-7 -21 -27 0
15 -31 97 0
-15 31 -94 0
-31 -72 74 0
32 49 -66 0
-26 -30 34 0
17 21 54 0
6 -29 58 0
22 -50 -86 0
33 47 50 0
-26 49 75 0
-53 -79 -87 0
-4 32 -54 0
10 22 75 0
-10 -26 81 0
44 58 -77 0
-41 -65 88 0
-24 56 -66 0
31 -40 -50 0
27 -51 94 0
-28 47 56 0
25 -57 -63 0
-26 -44 -96 0
-6 48 -65 0
12 -30 -97 0
51 89 -93 0
49 73 89 0
-1 -56 87 0
-13 -29 32 0
-7 30 77 0
37 46 -51 0
-51 59 79 0
-20 50 -81 0
-35 78 80 0
-6 47 74 0
-5 -34 90 0
-29 68 -83 0
-10 -77 83 0
82 -87 -99 0
-63 66 -98 0
61 -90 91 0
49 55 -80 0
-20 -26 43 0
11 41 -69 0
1 5 45 0
9 -20 -88 0
26 -41 62 0
12 19 -26 0
-5 -27 -66 0
-20 57 -63 0
8 78 -84 0
-34 47 -70 0
-16 -42 79 0
-10 60 95 0
51 -62 97 0
-27 93 -96 0
-5 -22 -81 0
-60 -77 -84 0
26 -28 -90 0
-16 -38 -74 0
-18 55 -74 0
2 -31 36 0
-31 -83 -96 0

