c Generated by rand.py 100 500 3 222882
c Generator source: https://github.com/aaw/sat/blob/master/gen/rand.py
p cnf 100 500
38 -84 99 0
-34 -39 49 0
22 -58 -71 0
6 32 -83 0
14 -52 79 0
-59 62 65 0
-35 51 63 0
-14 -21 37 0
6 53 68 0
-22 24 51 0
-45 73 -96 0
-10 34 85 0
66 75 95 0
-7 -17 40 0
14 50 -75 0
26 69 81 0
43 -46 100 0
-19 26 70 0
18 69 100 0
-60 -77 -97 0
-20 -62 88 0
-39 -51 90 0
-18 -20 -46 0
25 46 57 0
-22 -32 -53 0
54 79 100 0
-57 65 74 0
36 47 -59 0
2 -74 -94 0
63 -75 90 0
-75 -80 -88 0
-28 -39 -73 0
-43 -71 97 0
17 -45 -56 0
-9 52 78 0
10 43 55 0
-9 -12 -49 0
-24 -59 -100 0
9 -33 85 0
-15 -64 94 0
-50 59 84 0
-8 -45 85 0
-45 62 80 0
31 -37 91 0
-52 53 -64 0
-2 24 75 0
22 -82 -84 0
-44 95 99 0
-4 -47 74 0
57 78 79 0
26 -27 -50 0
-43 -58 59 0
-19 -24 -39 0
-28 -36 -37 0
-35 -45 100 0
-64 -75 -80 0
-15 70 -87 0
-15 -34 78 0
-7 -65 -66 0
-20 41 -76 0
15 -42 -84 0
21 37 -77 0
-3 -11 -57 0
-2 42 98 0
-1 33 -64 0
30 64 80 0
5 -28 -95 0
1 -28 -75 0
-27 30 -49 0
-30 35 -78 0
8 48 -56 0
-37 43 -51 0
29 41 -73 0
14 -35 -60 0
-38 -47 50 0
-55 68 -92 0
-19 58 100 0
27 -43 -91 0
-9 -23 -34 0
8 37 46 0
-37 41 -57 0
16 -18 100 0
-6 51 90 0
-3 -69 93 0
21 -40 82 0
13 15 29 0
25 77 90 0
10 45 -75 0
23 -56 81 0
23 -58 -78 0
-88 98 99 0
-2 -25 -84 0
-23 -58 -68 0
11 -43 87 0
6 -12 20 0
-63 67 74 0
15 -93 -96 0
-62 65 67 0
7 31 52 0
-44 -66 -76 0
-9 36 -75 0
-48 -76 79 0
25 31 -66 0
13 43 -67 0
37 53 -84 0
27 79 -100 0
-3 -8 66 0
-10 28 77 0
-5 6 -48 0
58 -59 83 0
10 58 -69 0
19 78 -82 0
-45 50 -96 0
-36 -45 54 0
9 -20 80 0
29 -73 83 0
-10 49 71 0
57 62 -65 0
-32 60 -94 0
-16 -32 91 0
1 -48 -86 0
76 -83 -90 0
22 -27 -63 0
19 50 -77 0
-28 61 -99 0
-33 -38 -46 0
19 -33 41 0
37 44 -72 0
29 50 73 0
40 45 -73 0
18 61 -69 0
29 -41 69 0
-25 -76 81 0
22 -59 -61 0
13 40 -92 0
7 46 49 0
-68 89 -93 0
52 -83 -93 0
-5 16 -81 0
-42 74 -85 0
74 -81 94 0
9 28 -71 0
31 -72 -77 0
54 -60 80 0
7 -30 47 0
-5 -15 79 0
46 -73 83 0
62 -69 91 0
6 9 54 0
-39 50 80 0
-20 -68 69 0
-64 -81 -95 0
-21 -73 -100 0
13 -44 95 0
38 -40 -55 0
16 -41 83 0
9 53 -88 0
67 80 93 0
-7 82 -91 0
-8 87 -94 0
51 72 92 0
2 -44 -67 0
-65 -73 77 0
24 93 96 0
50 92 96 0
2 53 74 0
5 -27 -66 0
23 66 -83 0
-5 71 76 0
-14 -33 56 0
24 45 97 0
-1 13 -79 0
16 19 -81 0
52 53 -79 0
-21 -39 -48 0
21 74 -91 0
3 29 -38 0
-8 48 83 0
11 -58 -76 0
52 -67 -91 0
43 44 97 0
23 72 -99 0
-43 54 59 0
4 62 71 0
28 -60 -94 0
11 -36 98 0
-17 70 78 0
-14 52 -59 0
13 -38 85 0
-10 30 -91 0
14 51 88 0
-2 -12 -32 0
-33 -55 -98 0
-51 -73 -76 0
-60 69 -80 0
-1 -20 96 0
14 -46 -100 0
-9 23 -88 0
-39 -74 87 0
-11 34 -96 0
-4 15 -23 0
4 -54 -93 0
-45 -49 -85 0
39 62 86 0
2 -6 -45 0
-7 -16 26 0
26 73 85 0
-30 43 -98 0
52 56 96 0
42 -46 78 0
-11 -25 68 0
-15 -63 -71 0
-29 52 84 0
15 69 -95 0
19 32 70 0
-1 -19 35 0
19 57 74 0
16 39 -95 0
45 -59 -94 0
50 58 82 0
25 -71 82 0
-65 -86 -90 0
5 -27 42 0
-21 37 -71 0
1 -17 -95 0
56 -61 88 0
-2 -61 -90 0
-25 42 66 0
54 60 -92 0
26 -42 79 0
40 84 -86 0
24 -56 -60 0
3 -16 30 0
55 80 99 0
15 -61 -76 0
-86 -88 99 0
-21 31 -74 0
-51 59 94 0
-41 -64 -65 0
12 38 97 0
-25 28 51 0
44 -55 -100 0
-5 -30 97 0
-48 88 -98 0
6 52 94 0
27 -69 77 0
-47 -55 96 0
-65 73 -82 0
16 -23 -52 0
-22 66 78 0
-55 87 91 0
-29 -80 -83 0
-11 -41 64 0
48 63 85 0
13 14 -27 0
-32 -48 -82 0
2 73 82 0
-9 -39 -87 0
-21 -72 81 0
-10 21 -57 0
20 -57 -85 0
10 60 97 0
26 -45 46 0
-12 56 -94 0
37 -59 -93 0
32 -33 74 0
50 -83 89 0
30 47 56 0
-22 -61 -94 0
2 27 97 0
-64 74 -83 0
4 -89 94 0
-72 80 93 0
52 -77 92 0
-44 88 91 0
-7 -55 -56 0
-11 40 61 0
7 -8 -59 0
71 85 88 0
-4 33 -45 0
-30 -55 -84 0
-11 -60 88 0
38 52 -53 0
8 -14 -96 0
-3 10 -67 0
30 -64 81 0
-17 71 -95 0
-53 -74 76 0
33 56 -78 0
-32 -67 -68 0
4 -5 -61 0
43 -51 -79 0
16 -34 56 0
44 70 -92 0
-24 38 -77 0
-15 -32 -94 0
22 -28 -49 0
-10 52 -55 0
1 -5 90 0
21 26 -50 0
17 54 72 0
-12 -28 100 0
31 -67 -70 0
-4 31 79 0
-14 24 -51 0
41 -47 98 0
32 82 -90 0
4 -34 -89 0
13 49 94 0
-44 -60 88 0
-12 -22 31 0
20 22 -63 0
10 -29 79 0
-3 19 -40 0
-7 9 -23 0
-26 52 -72 0
50 -69 -95 0
-39 -42 85 0
-14 -25 -52 0
-15 38 79 0
74 -84 93 0
24 65 -96 0
28 35 97 0
-34 -44 94 0
-35 -42 47 0
7 -15 -26 0
-26 75 87 0
-17 -32 86 0
30 -39 64 0
-8 -41 -42 0
8 43 50 0
-45 62 -67 0
46 76 77 0
-49 -86 -95 0
10 23 -70 0
-5 -43 -65 0
-11 -44 -50 0
9 -68 84 0
62 -85 -94 0
9 -42 -43 0
4 -50 -96 0
-31 -55 82 0
-2 -5 -7 0
37 95 98 0
35 -41 -42 0
-5 -54 60 0
7 -10 -15 0
-38 -47 86 0
10 -34 49 0
27 -35 -71 0
-6 -51 -91 0
18 -41 58 0
-40 86 -87 0
-2 -88 98 0
-38 56 -66 0
62 98 -99 0
-14 27 98 0
7 -30 34 0
-10 43 -61 0
38 56 -67 0
-35 43 -57 0
-13 64 99 0
32 -45 92 0
-39 55 62 0
45 48 63 0
35 54 93 0
-13 47 -80 0
10 -51 59 0
-13 62 95 0
71 -87 -88 0
-23 -40 -99 0
3 -7 35 0
-38 -68 -100 0
-66 76 -92 0
-3 -49 -50 0
2 7 -64 0
-42 47 -74 0
-54 61 -88 0
-1 46 -62 0
25 36 -99 0
-38 -73 -86 0
47 76 -81 0
-11 -27 72 0
-18 -25 -85 0
23 66 -70 0
51 -57 73 0
10 31 -51 0
-31 -40 -45 0
3 -20 -54 0
-2 -59 -78 0
75 96 -98 0
-10 -31 -76 0
-20 -66 -100 0
-18 53 -75 0
-15 -17 90 0
10 49 69 0
34 68 -71 0
-8 61 -91 0
37 71 -95 0
-22 44 -67 0
68 94 -96 0
-30 -45 -98 0
10 25 -48 0
8 14 -20 0
-32 -58 93 0
-34 56 -90 0
67 82 93 0
-18 29 -95 0
-22 -87 -98 0
22 -56 -75 0
5 -33 34 0
-11 -39 -67 0
5 30 65 0
-18 -26 -57 0
25 63 -68 0
-19 40 -64 0
33 38 -78 0
81 -90 91 0
34 38 -48 0
62 78 87 0
-75 79 99 0
46 49 -98 0
-68 91 98 0
42 87 -88 0
36 -99 100 0
5 -16 36 0
-23 33 34 0
-1 76 -91 0
-42 60 88 0
4 49 98 0
-6 44 -48 0
-15 -41 85 0
-21 -62 92 0
-29 85 -96 0
22 43 58 0
7 55 76 0
-5 -9 22 0
10 -24 -59 0
57 -69 -94 0
-8 -32 -78 0
-1 -51 -88 0
7 24 49 0
-15 -44 -95 0
6 -57 81 0
37 -59 -78 0
46 84 -92 0
-4 52 -95 0
19 -93 95 0
68 -78 -84 0
-44 82 -92 0
-17 -20 -42 0
-32 -37 66 0
11 83 -87 0
52 -60 82 0
-47 -62 -97 0
50 53 -87 0
-20 21 -90 0
-10 19 47 0
-38 -42 -46 0
-29 -82 92 0
30 38 -93 0
18 -68 -76 0
6 -19 -58 0
-14 27 70 0
6 18 32 0
-49 -67 82 0
36 -62 96 0
48 -66 94 0
-8 42 -57 0
-40 -51 -90 0
-13 -39 47 0
-18 -22 -83 0
4 67 96 0
-51 85 99 0
-1 -56 80 0
19 -44 -85 0
47 61 98 0
-26 -27 -39 0
17 61 -98 0
9 13 15 0
21 -55 63 0
5 92 99 0
-21 -27 81 0
-16 23 -24 0
-4 -48 -89 0
-9 10 -18 0
-7 15 -42 0
-31 -34 -68 0
34 -61 -69 0
-1 -65 98 0
15 46 -91 0
-61 -64 95 0
-2 -21 54 0
-49 -61 -78 0
8 -54 -97 0
41 -48 56 0
43 -46 -74 0
-22 65 99 0
16 56 -72 0
-23 -71 -81 0

