c Generated by rand.py 75 375 3 675038
c Generator source: https://github.com/aaw/sat/blob/master/gen/rand.py
p cnf 75 375
-5 -57 68 0
-38 62 -68 0
8 -33 -60 0
30 59 61 0
-39 42 -61 0
-20 48 62 0
11 -16 -28 0
36 -45 71 0
-2 -52 73 0
37 -45 52 0
-27 53 62 0
-12 -46 52 0
8 24 -75 0
5 -41 -50 0
-16 43 -69 0
-11 -61 71 0
-4 60 72 0
-16 43 70 0
46 -59 -69 0
-18 -53 -67 0
-1 51 -58 0
8 47 -55 0
12 -13 29 0
26 -32 56 0
26 -37 58 0
16 -18 69 0
-5 -54 -57 0
6 18 66 0
1 -44 -71 0
21 52 -63 0
-3 -8 75 0
-4 47 -71 0
9 26 38 0
-25 -51 63 0
31 -73 75 0
4 -31 -36 0
25 31 -39 0
8 -52 70 0
46 48 -59 0
5 16 -39 0
5 28 32 0
7 12 54 0
4 -32 71 0
-2 -31 -73 0
-23 -31 47 0
32 49 63 0
-23 -37 -39 0
5 40 61 0
-54 -66 -75 0
12 -36 -62 0
-7 66 -69 0
28 -31 -54 0
6 -8 -37 0
-8 -28 -44 0
15 -49 55 0
25 28 -41 0
25 -30 -49 0
-36 39 -42 0
27 -48 55 0
46 -53 -74 0
11 -39 40 0
17 -33 -66 0
-19 42 54 0
-27 40 -74 0
2 -48 63 0
3 8 -23 0
10 38 48 0
25 -26 47 0
15 -47 -67 0
1 19 34 0
-24 -51 68 0
-11 12 65 0
-11 36 65 0
-7 -37 65 0
3 8 25 0
-37 -46 62 0
15 -45 64 0
9 50 61 0
-41 48 68 0
20 46 -64 0
-4 -14 -68 0
-13 41 -69 0
54 55 -70 0
-7 -8 29 0
-51 -66 72 0
-5 -38 -75 0
-5 18 -70 0
28 67 75 0
1 -20 50 0
-2 13 -61 0
18 34 54 0
7 65 75 0
-10 26 -65 0
4 26 30 0
9 60 75 0
2 13 17 0
-15 -21 59 0
-23 27 72 0
-16 26 -38 0
3 -54 -69 0
49 53 -61 0
-7 55 -56 0
17 -25 -60 0
24 65 -71 0
7 58 67 0
1 -32 37 0
7 16 -47 0
-25 -43 -48 0
-10 25 -65 0
-14 -18 -72 0
21 45 70 0
-27 51 64 0
5 -12 19 0
5 24 -47 0
-7 17 23 0
17 -45 58 0
45 -49 -58 0
-10 -11 -56 0
-2 -24 -53 0
21 -41 52 0
19 -38 69 0
3 10 -63 0
-9 -16 62 0
33 -47 -69 0
-20 -62 66 0
-15 27 -46 0
38 -48 74 0
1 -11 22 0
-38 44 72 0
29 60 -65 0
41 51 -70 0
-4 -7 -12 0
4 23 68 0
-53 62 66 0
-33 -38 -69 0
9 56 -71 0
-12 32 -37 0
1 32 -38 0
36 -51 62 0
9 -17 -28 0
-17 30 -41 0
-4 -60 73 0
-11 71 -74 0
9 -40 65 0
-7 -16 47 0
4 -25 -60 0
-16 -20 30 0
30 -33 -46 0
12 31 35 0
14 -39 -70 0
26 57 -61 0
-7 23 33 0
24 52 -68 0
27 55 64 0
21 51 -62 0
6 -9 43 0
27 -34 45 0
-1 -6 8 0
4 18 55 0
23 -33 63 0
-10 -55 -74 0
-10 50 64 0
7 -9 -56 0
5 9 -62 0
11 -41 67 0
-14 -39 74 0
-44 -54 -73 0
9 31 -73 0
-2 -44 -70 0
-39 -48 53 0
1 72 73 0
-42 -67 74 0
-28 37 -68 0
8 38 56 0
-11 -51 71 0
18 27 30 0
-8 -51 65 0
3 66 70 0
-7 17 -39 0
-28 38 -75 0
-18 46 -52 0
-23 38 59 0
2 -34 47 0
2 -45 56 0
45 -52 -58 0
-34 -53 54 0
20 30 36 0
30 59 60 0
13 61 73 0
-14 30 -67 0
-33 -38 66 0
-15 59 -70 0
13 35 67 0
-62 64 -73 0
-28 42 -62 0
47 -60 73 0
-9 -20 34 0
23 24 -74 0
-2 31 53 0
1 -22 -42 0
-9 39 -65 0
9 36 54 0
22 36 -47 0
19 -34 61 0
-33 -34 36 0
-13 36 -72 0
-32 -56 58 0
37 -41 -44 0
5 -41 43 0
6 54 59 0
22 26 57 0
-38 61 62 0
4 -46 61 0
-52 -56 75 0
-2 9 61 0
33 -58 72 0
-18 -40 -67 0
1 -6 46 0
-8 -16 -64 0
52 -57 67 0
-39 -48 -54 0
62 -69 -71 0
-1 -4 49 0
-2 17 -55 0
45 46 52 0
-3 17 -24 0
-12 18 72 0
18 -45 -54 0
7 29 42 0
1 -16 -27 0
7 -12 -71 0
8 -31 -47 0
43 -46 65 0
-35 -48 -65 0
17 -60 69 0
6 -60 71 0
40 50 68 0
11 17 37 0
37 -59 -71 0
-12 -21 25 0
14 -25 56 0
-24 59 75 0
-26 -45 46 0
20 24 29 0
-23 31 -74 0
20 70 75 0
-1 17 -74 0
3 17 -37 0
-3 36 60 0
3 -44 49 0
8 -44 46 0
14 -18 44 0
-15 41 74 0
26 -37 45 0
-16 -22 50 0
31 40 -60 0
-2 29 36 0
-49 59 -66 0
-30 -43 -59 0
8 -42 60 0
6 -23 71 0
-46 -48 50 0
-1 28 -43 0
-3 -36 62 0
41 -48 54 0
-3 37 51 0
-3 11 -44 0
9 21 -38 0
-17 -52 71 0
27 43 -53 0
-40 44 46 0
25 45 -75 0
1 8 -54 0
16 -30 42 0
8 -36 66 0
-13 -60 63 0
-9 -28 -49 0
-20 -24 43 0
11 25 63 0
-12 24 -29 0
-16 -34 -35 0
-12 54 -67 0
23 39 46 0
14 27 44 0
-29 -34 56 0
-3 -33 -38 0
49 50 -63 0
37 -61 66 0
19 -43 48 0
-14 -17 -65 0
-45 57 62 0
-11 -27 73 0
-15 -36 55 0
1 17 -58 0
9 -63 66 0
27 -37 -60 0
-32 -63 67 0
37 53 67 0
9 49 50 0
31 -52 67 0
-28 -36 -44 0
24 32 -69 0
-2 -29 38 0
-25 28 -38 0
22 43 -49 0
-26 -59 -71 0
3 35 48 0
2 -33 64 0
11 37 59 0
9 25 -71 0
5 46 -47 0
58 63 69 0
10 58 -67 0
-20 -45 -66 0
-10 29 -67 0
-3 -9 -19 0
-16 -64 -71 0
-26 -66 72 0
16 35 48 0
3 -23 -73 0
11 -27 58 0
-3 20 41 0
7 14 28 0
2 45 70 0
-48 73 -75 0
15 -22 -50 0
23 57 -63 0
-16 22 -32 0
23 -31 42 0
-1 21 73 0
-12 37 57 0
19 -55 -61 0
-6 30 48 0
21 38 -42 0
32 -45 55 0
-4 14 -45 0
6 -22 45 0
7 -19 34 0
-23 72 75 0
23 -33 64 0
-8 12 -64 0
-5 60 74 0
-2 -22 -32 0
-27 -55 64 0
12 -24 66 0
26 -59 -71 0
8 -13 -26 0
8 -14 -52 0
16 50 -60 0
1 -53 60 0
3 33 -65 0
-17 59 -63 0
32 -40 62 0
10 -29 40 0
12 22 24 0
17 51 -70 0
6 27 36 0
-23 -52 75 0
-4 -8 42 0
9 -10 55 0
-40 55 -70 0
11 44 -74 0
-13 -21 70 0
1 -51 57 0
-43 46 -48 0
-8 23 -38 0
44 62 -65 0
18 -52 69 0
-26 32 -46 0
-7 -21 -64 0
-31 57 60 0
48 53 63 0
-39 -46 69 0
-19 -29 -53 0
-25 30 70 0

