c Generated by rand.py 50 250 3 345188
c Generator source: https://github.com/aaw/sat/blob/master/gen/rand.py
p cnf 50 250
22 24 26 0
33 -43 -46 0
-1 -8 33 0
-25 33 -35 0
-2 19 -35 0
-2 42 48 0
-15 34 -48 0
-1 39 47 0
14 19 40 0
-12 17 34 0
-3 26 30 0
-8 -45 50 0
6 38 39 0
20 -29 42 0
1 27 36 0
-5 38 39 0
20 32 -36 0
21 22 -30 0
17 23 45 0
38 47 -48 0
-32 44 46 0
-8 -9 11 0
8 -23 25 0
16 -33 49 0
-20 -31 39 0
20 -21 22 0
3 -5 28 0
-24 -40 -50 0
1 -7 17 0
-3 40 44 0
-32 -39 -44 0
-10 12 21 0
-31 -35 -44 0
3 -33 46 0
-23 -30 -41 0
-20 -24 -48 0
12 -21 33 0
1 -20 49 0
-14 -15 45 0
4 38 39 0
31 -37 44 0
7 -15 -29 0
-25 -31 36 0
-28 -37 40 0
-4 -19 21 0
-40 44 -47 0
1 -8 -11 0
-23 -36 45 0
-6 31 44 0
11 45 -46 0
-1 -36 -47 0
-11 -33 43 0
-16 32 -36 0
-16 32 -34 0
7 -20 30 0
-12 38 -40 0
2 -6 -29 0
-13 34 -45 0
8 -15 -31 0
22 32 45 0
9 14 -49 0
-41 43 50 0
-4 12 -21 0
-6 -39 -50 0
-3 -11 37 0
2 16 39 0
-12 14 -40 0
9 23 -27 0
-26 43 -47 0
-21 -26 -30 0
14 -21 24 0
-27 34 50 0
-13 28 33 0
-39 -42 -48 0
28 36 -50 0
-3 14 -20 0
-9 -22 -33 0
22 27 39 0
-35 -42 49 0
-2 30 -35 0
-15 -23 -38 0
17 -22 -45 0
10 -37 -49 0
5 22 41 0
-9 -31 50 0
25 -27 -39 0
22 -24 28 0
-4 -46 -49 0
-5 29 -34 0
-1 18 -35 0
8 20 -37 0
16 -27 46 0
11 -28 43 0
-38 46 48 0
-6 -12 -45 0
-2 36 41 0
10 14 -20 0
34 41 42 0
26 -30 46 0
12 39 44 0
4 16 -18 0
31 33 -34 0
23 24 42 0
35 -45 50 0
1 43 50 0
-7 11 20 0
10 36 -45 0
-10 -19 -43 0
-12 -15 36 0
24 38 50 0
17 -45 -50 0
-12 28 -34 0
24 36 43 0
-2 -20 23 0
-3 7 -10 0
-17 24 -46 0
13 38 44 0
11 -29 43 0
2 -3 21 0
2 -3 29 0
23 30 -45 0
6 7 -41 0
14 29 -43 0
-5 -11 14 0
16 -34 -36 0
11 23 -37 0
1 -19 32 0
-3 14 31 0
17 -18 32 0
-22 27 42 0
3 -40 49 0
-4 -11 47 0
-1 17 -44 0
2 -24 -34 0
-11 -16 33 0
-11 -22 28 0
6 -34 -41 0
32 43 -50 0
-19 -24 -27 0
26 -39 50 0
-5 -33 -40 0
-7 -35 -41 0
-18 -24 -28 0
-4 -27 -28 0
17 18 -39 0
-7 -27 31 0
-8 9 -22 0
-9 -19 -48 0
8 39 43 0
-23 -26 -28 0
-8 -32 38 0
-30 35 -42 0
-28 -32 50 0
-14 -19 43 0
-16 20 -48 0
-27 -46 -47 0
1 12 -16 0
6 -8 13 0
2 -23 29 0
10 -20 -24 0
1 -45 -46 0
3 11 -41 0
22 23 34 0
-3 11 -42 0
-20 24 43 0
11 24 -37 0
15 17 -20 0
-14 32 47 0
-9 28 29 0
19 21 48 0
8 27 -44 0
2 -33 -46 0
40 -44 46 0
-4 26 40 0
-19 28 50 0
-13 -21 -25 0
10 -24 28 0
-2 11 42 0
-2 11 -34 0
-12 -19 -42 0
12 -16 -27 0
10 14 -40 0
-5 -15 -49 0
8 41 -42 0
-6 -11 -42 0
3 -27 44 0
-5 -11 25 0
-10 12 48 0
2 3 27 0
4 -6 45 0
2 -30 44 0
4 25 -47 0
9 -12 -25 0
-8 -26 49 0
-5 -20 28 0
-23 -32 -33 0
2 40 47 0
-22 34 50 0
-4 27 36 0
8 -11 -20 0
-6 -29 -50 0
-3 8 -36 0
16 46 49 0
28 34 41 0
4 -40 -42 0
16 29 -47 0
2 4 -24 0
38 -48 -50 0
-26 34 -46 0
9 -11 -24 0
-15 27 29 0
2 -20 -36 0
7 -10 -14 0
-5 -15 -29 0
4 -8 -43 0
8 21 31 0
-7 13 -27 0
-26 -28 33 0
-3 -36 -37 0
19 -27 32 0
-6 26 44 0
-25 28 -44 0
7 10 40 0
5 7 -33 0
-8 -13 45 0
-22 40 47 0
-21 -22 -40 0
38 42 50 0
-25 -33 36 0
-5 -18 41 0
5 -21 38 0
-17 23 43 0
-1 -40 45 0
-18 20 -50 0
13 29 -38 0
-38 -41 44 0
22 28 37 0
-9 13 30 0
-3 -30 -46 0
-4 -28 35 0
-32 -38 -47 0
-19 43 -46 0
-19 -21 49 0
-5 -24 -25 0
1 -21 39 0
-24 -36 -43 0
-18 41 -46 0
20 -25 -42 0
4 -28 32 0
7 35 -42 0

