c Generated by rand.py 75 375 3 803680
c Generator source: https://github.com/aaw/sat/blob/master/gen/rand.py
p cnf 75 375
24 -28 60 0
-1 9 -64 0
-13 40 -60 0
-22 37 -68 0
35 -49 -72 0
-2 -8 -10 0
-7 13 73 0
50 62 -74 0
-27 44 68 0
45 -62 -75 0
5 45 52 0
20 -27 66 0
36 -44 -48 0
-14 -33 -67 0
3 55 59 0
-7 9 -53 0
31 -39 54 0
-2 37 -59 0
-12 -29 -60 0
6 63 -66 0
-8 32 53 0
-1 23 39 0
7 -13 -48 0
7 11 17 0
-60 69 -74 0
-16 58 71 0
18 -49 74 0
-50 -55 59 0
33 39 -40 0
-2 46 -50 0
-7 16 -73 0
-16 -24 69 0
-6 43 61 0
-33 -62 -70 0
-26 43 56 0
-32 -41 -63 0
-24 47 -75 0
-1 24 -65 0
-10 27 28 0
-35 -39 -42 0
-32 70 -75 0
18 20 62 0
-3 -59 -61 0
-30 60 61 0
-11 26 56 0
47 -48 -72 0
10 -36 -37 0
11 -40 60 0
23 31 -72 0
-21 -63 -66 0
15 23 55 0
23 28 -42 0
-1 11 -63 0
-25 40 -69 0
25 -46 47 0
-1 -47 54 0
30 33 -43 0
-23 -44 59 0
-18 -33 -72 0
-8 -43 65 0
1 19 -53 0
-30 -44 54 0
5 -10 37 0
12 -43 -66 0
-6 -19 -62 0
-1 -55 -61 0
-34 51 65 0
-30 43 -68 0
22 47 -74 0
-14 -48 59 0
-21 47 -71 0
-42 -47 50 0
-5 -30 39 0
-10 -12 30 0
7 -25 44 0
9 46 52 0
25 -29 -75 0
-1 8 48 0
15 30 -60 0
-21 59 -74 0
-12 48 -49 0
-33 63 -69 0
28 41 -62 0
18 -20 68 0
4 33 -46 0
-13 -19 68 0
-30 45 62 0
3 -57 60 0
2 -29 -35 0
-35 53 68 0
7 23 -38 0
-25 51 -55 0
22 -28 66 0
23 -37 53 0
-12 -22 70 0
-16 -58 75 0
10 31 66 0
-6 -9 -27 0
13 38 -41 0
-13 50 -70 0
-27 -40 -74 0
15 26 -47 0
27 -44 62 0
4 -8 74 0
41 -63 68 0
6 21 -23 0
-41 -51 58 0
45 -56 69 0
8 46 59 0
3 -28 60 0
29 -37 -38 0
10 55 -58 0
21 -47 -60 0
-2 -18 -35 0
-44 -46 -61 0
8 -10 37 0
-42 -48 56 0
-25 -40 -65 0
22 33 35 0
-28 -42 74 0
28 -52 -72 0
3 -22 -31 0
57 58 65 0
-28 40 -41 0
21 27 45 0
-16 67 69 0
36 39 60 0
9 18 -66 0
-5 18 -30 0
-16 17 -50 0
-18 -53 57 0
-49 -54 67 0
-1 -22 -56 0
20 27 -39 0
11 22 -50 0
-5 17 47 0
-21 50 -61 0
-28 41 71 0
10 -53 57 0
-3 -39 51 0
-11 -17 -67 0
-10 48 -61 0
-28 -43 44 0
22 31 62 0
-29 -34 -62 0
-8 -44 -60 0
-41 43 54 0
16 -30 49 0
-22 40 43 0
13 -20 -58 0
-5 -25 -58 0
-5 -34 -35 0
50 -52 -57 0
-43 -66 -72 0
-10 -28 35 0
21 51 66 0
-12 -39 -73 0
15 17 -24 0
17 26 34 0
-9 -23 32 0
-2 -22 74 0
14 53 -55 0
16 28 -61 0
27 -56 -63 0
-19 -23 -26 0
-53 -56 61 0
3 4 47 0
25 -32 55 0
1 48 -75 0
4 -34 62 0
33 -40 54 0
-45 47 54 0
-18 -39 -61 0
32 -42 -60 0
-62 -67 -72 0
5 -11 -56 0
35 -64 69 0
-13 63 -72 0
26 -43 53 0
-37 -38 72 0
2 59 61 0
-39 50 -51 0
9 18 68 0
-23 44 72 0
-21 -41 58 0
-32 44 -57 0
-55 61 -67 0
39 46 48 0
18 -28 36 0
23 -44 -61 0
-9 -36 -48 0
-18 48 -69 0
32 -49 56 0
6 -38 -59 0
21 33 53 0
7 19 47 0
-12 -65 73 0
-17 -60 75 0
10 47 -73 0
23 -66 -71 0
9 49 -55 0
10 -49 -68 0
14 -73 -74 0
-4 -20 -69 0
-41 60 -65 0
-25 -49 -69 0
18 23 31 0
-15 63 75 0
-27 -38 53 0
-8 -21 -57 0
-53 -68 69 0
-5 -14 -56 0
-13 -56 73 0
33 -49 -66 0
10 17 67 0
-4 -46 -54 0
-45 -50 63 0
4 13 57 0
22 24 -39 0
28 29 70 0
1 -13 71 0
-12 -36 -49 0
32 -50 -54 0
-20 28 -64 0
5 -28 -60 0
-4 65 -72 0
-21 57 59 0
7 -23 71 0
-16 -37 -61 0
-21 -23 -71 0
11 32 -63 0
-5 -23 60 0
6 -56 -60 0
-23 24 -54 0
5 -46 64 0
-14 -41 67 0
25 27 -47 0
-16 -35 63 0
2 40 -49 0
12 31 74 0
-23 -55 57 0
-12 41 46 0
-9 -32 -37 0
4 -35 72 0
-12 48 -54 0
-6 19 27 0
-9 16 -42 0
-19 65 -74 0
4 19 -44 0
-3 -21 33 0
-12 52 -75 0
50 61 71 0
13 14 41 0
13 -56 70 0
9 28 52 0
-9 12 51 0
-20 25 35 0
15 34 -55 0
-8 -13 -32 0
23 -41 57 0
-29 36 39 0
1 -26 -61 0
4 44 73 0
1 -35 72 0
-12 17 -55 0
-3 42 -63 0
32 53 -70 0
-27 -51 -60 0
16 -66 70 0
-48 60 -64 0
-20 -44 56 0
-38 -61 -70 0
-21 31 -32 0
12 63 74 0
2 10 52 0
-29 30 60 0
-4 -23 -57 0
-10 -17 -55 0
12 -28 -65 0
-6 -25 74 0
-18 -37 71 0
-27 43 54 0
1 25 63 0
9 -22 57 0
-11 -58 73 0
-14 -62 -71 0
-31 41 62 0
2 -37 50 0
18 -34 52 0
9 18 51 0
-1 38 62 0
9 68 -69 0
33 -41 -49 0
1 6 57 0
-34 -56 72 0
-11 -52 74 0
-3 51 73 0
-42 -47 -54 0
-14 -26 -35 0
17 -42 45 0
7 17 37 0
13 56 73 0
-14 23 68 0
-12 -21 43 0
-29 -60 73 0
-21 -51 -53 0
12 57 -58 0
-13 -49 50 0
-19 33 35 0
-41 -42 -58 0
26 48 -74 0
-2 9 12 0
26 -38 49 0
30 -42 64 0
27 -39 74 0
-39 -44 -55 0
-30 49 -54 0
-17 -58 -75 0
32 -56 59 0
6 15 -56 0
-13 -40 -61 0
-1 -24 59 0
-1 -37 -59 0
-7 56 59 0
-7 36 -49 0
-1 37 60 0
-15 -25 -57 0
21 -28 75 0
26 -31 56 0
15 21 62 0
-1 -23 67 0
11 21 -29 0
28 47 64 0
9 -16 71 0
-19 -27 -54 0
19 34 -35 0
-4 13 -47 0
-9 57 66 0
2 -35 60 0
-7 26 -74 0
12 -48 -73 0
25 65 -70 0
-2 21 -35 0
13 43 56 0
12 -14 27 0
31 60 -71 0
-20 39 -63 0
19 20 -35 0
-16 49 74 0
-16 -41 58 0
-22 -29 -49 0
-48 -56 -74 0
13 -48 -71 0
41 -61 65 0
-7 -10 -17 0
-8 12 13 0
41 45 -46 0
58 -61 -64 0
22 -43 71 0
-11 -19 38 0
3 27 -72 0
-10 20 38 0
21 -66 69 0
-47 66 -75 0
-14 24 -53 0
13 -23 -62 0
-12 -18 -70 0
-26 -48 52 0
18 -23 75 0
6 53 59 0
-26 -60 75 0
17 45 -51 0
54 -68 71 0
-12 13 67 0
24 -37 -69 0

