c Generated by rand.py 50 250 3 427365
c Generator source: https://github.com/aaw/sat/blob/master/gen/rand.py
p cnf 50 250
21 23 28 0
-15 16 -28 0
22 -28 35 0
-4 13 36 0
17 32 -46 0
36 -39 50 0
-1 -21 45 0
-4 -23 -46 0
9 22 35 0
2 -39 44 0
-21 22 -35 0
-6 -16 37 0
-9 -29 33 0
4 16 -44 0
10 36 -45 0
21 24 36 0
20 -28 -46 0
14 42 49 0
4 -28 31 0
-24 -29 45 0
19 45 47 0
-6 19 21 0
7 24 -29 0
13 -28 32 0
12 15 -29 0
-6 -43 -47 0
9 -31 -46 0
18 22 28 0
7 -14 28 0
8 22 -29 0
18 24 -34 0
1 -37 41 0
-10 30 -50 0
-6 -31 34 0
4 -15 21 0
8 13 -27 0
-12 -13 29 0
10 -12 -24 0
24 -38 -45 0
24 -39 -49 0
-26 34 47 0
12 14 -36 0
40 47 49 0
-32 41 -49 0
-18 37 -49 0
6 -13 42 0
-17 -30 35 0
1 -29 43 0
9 29 -47 0
4 -25 38 0
13 16 -44 0
-4 -12 -14 0
15 17 48 0
-14 -15 -20 0
6 -19 39 0
-3 12 -47 0
3 -37 48 0
6 10 38 0
18 28 -49 0
12 29 -39 0
-23 45 48 0
29 33 -41 0
25 31 41 0
15 -28 -43 0
18 21 -48 0
-45 46 -47 0
-17 -19 -50 0
22 24 -31 0
-33 -38 -49 0
15 41 50 0
-29 -30 -40 0
-5 -13 45 0
-18 -21 -45 0
11 -41 45 0
-4 -15 37 0
-1 -9 45 0
5 -24 38 0
-1 2 10 0
13 -14 47 0
11 -42 -50 0
-4 21 -32 0
35 39 -45 0
3 9 -18 0
12 17 41 0
-9 -16 -43 0
3 -12 -48 0
22 -31 45 0
12 30 31 0
-11 -12 31 0
5 8 -31 0
4 -13 -45 0
-9 -10 -13 0
1 7 34 0
-7 -25 -40 0
10 30 -50 0
19 -24 26 0
-28 32 38 0
9 -15 -33 0
21 34 42 0
2 -34 -42 0
-11 -12 17 0
10 22 42 0
-20 -36 40 0
-12 20 48 0
-13 -18 -40 0
-13 21 -41 0
-9 -23 33 0
30 -33 45 0
1 28 -41 0
-19 24 44 0
-16 22 29 0
5 27 31 0
-9 -20 -38 0
-6 -9 -20 0
-23 32 39 0
4 25 -49 0
-8 13 -25 0
13 21 50 0
-8 -32 -49 0
-4 -11 17 0
-28 -35 -41 0
11 -15 26 0
-6 -9 36 0
11 15 29 0
-45 -46 48 0
-30 43 -49 0
9 42 -45 0
-22 -23 27 0
-29 46 -49 0
-27 -29 43 0
30 41 -47 0
23 -31 -34 0
-10 16 21 0
2 15 25 0
-23 -40 -48 0
4 31 -35 0
-32 -36 -47 0
4 -17 -31 0
-9 -30 32 0
7 -24 42 0
-1 31 42 0
-9 15 41 0
1 8 39 0
-9 16 32 0
3 7 -23 0
1 11 -16 0
-6 -33 35 0
2 -31 34 0
2 -4 -6 0
-24 -35 48 0
-17 -45 -46 0
-1 12 -15 0
-3 10 -49 0
-3 -9 -50 0
-7 37 49 0
-6 -40 46 0
-14 35 -43 0
14 23 34 0
-3 -12 -46 0
-2 -17 -21 0
-15 29 -41 0
5 38 -44 0
23 -25 -36 0
15 19 43 0
3 11 12 0
29 -39 -45 0
-32 38 45 0
-16 23 -45 0
-20 22 28 0
2 46 48 0
-5 -17 -29 0
-9 13 29 0
29 40 41 0
19 -43 -45 0
24 26 48 0
16 33 49 0
-17 21 -43 0
-4 -10 11 0
1 -9 -38 0
7 18 -31 0
-11 42 44 0
11 -35 -36 0
24 -27 33 0
-14 25 26 0
2 13 -18 0
-9 -17 29 0
-36 37 -47 0
3 -17 29 0
-10 -32 -39 0
8 -13 -18 0
5 -6 -8 0
-6 18 36 0
-16 -22 48 0
-34 36 41 0
-22 32 -41 0
-4 -31 43 0
-19 -42 49 0
-12 -22 -28 0
3 29 39 0
-4 11 -50 0
-33 36 49 0
28 -35 -48 0
-4 -49 -50 0
9 42 43 0
2 -10 -46 0
-27 30 -35 0
-10 -11 24 0
13 -31 -43 0
-15 21 -30 0
9 14 23 0
-15 26 50 0
2 -6 17 0
7 -17 46 0
-24 -29 -43 0
4 20 42 0
6 10 -47 0
4 38 48 0
-8 9 11 0
-9 22 -37 0
-17 35 -45 0
-5 21 -44 0
5 13 48 0
-4 20 27 0
-19 -24 -42 0
-4 -6 40 0
20 -38 -48 0
20 25 42 0
1 23 -35 0
17 -20 -47 0
6 12 -30 0
10 25 46 0
8 -25 -48 0
-17 -41 50 0
14 -25 33 0
1 -15 -36 0
1 -25 -35 0
-7 -15 -31 0
-13 28 -41 0
19 -23 27 0
14 36 -47 0
41 -44 47 0
11 18 -39 0
11 -38 42 0
-6 -25 46 0
21 22 29 0
14 -29 -30 0
2 7 -9 0
-10 11 30 0
9 18 19 0
1 2 40 0

