c Generated by rand.py 75 375 3 426394
c Generator source: https://github.com/aaw/sat/blob/master/gen/rand.py
p cnf 75 375
-32 -38 -63 0
4 -18 60 0
1 -62 -72 0
-28 -31 -64 0
35 41 59 0
-24 38 71 0
15 47 -61 0
20 -48 74 0
-61 -64 65 0
3 25 -64 0
-3 -31 37 0
58 -66 71 0
6 63 72 0
-38 55 -59 0
16 -55 61 0
-22 67 -68 0
-26 40 62 0
-11 16 -71 0
22 35 -44 0
30 -33 -42 0
43 59 73 0
-14 28 -46 0
-19 -20 -49 0
-35 41 -42 0
23 33 38 0
34 -69 70 0
-46 60 72 0
40 51 53 0
-43 44 64 0
5 46 -58 0
4 -66 -71 0
16 37 -63 0
18 40 57 0
51 -61 64 0
-36 -56 -72 0
-24 -26 36 0
3 32 -54 0
-24 -34 69 0
-14 -33 -39 0
21 -64 -70 0
10 51 -68 0
-11 -16 44 0
43 -68 74 0
-12 17 -32 0
3 28 72 0
31 -32 69 0
1 -29 51 0
35 41 56 0
-2 39 69 0
4 -24 34 0
16 22 44 0
38 -47 56 0
44 -49 59 0
-14 45 72 0
1 31 65 0
50 64 73 0
16 44 55 0
-44 -47 -67 0
-15 -32 -36 0
45 60 -66 0
-13 -46 50 0
-27 39 -41 0
41 -60 -65 0
5 -16 -41 0
2 -5 -30 0
6 69 73 0
47 -59 73 0
-32 -38 -45 0
51 61 68 0
-47 -55 -58 0
-14 -39 73 0
14 -45 60 0
6 -41 -64 0
-7 -32 -45 0
-19 -35 -68 0
1 -21 59 0
-14 24 61 0
11 -57 -74 0
-12 39 -55 0
28 -36 -66 0
52 59 -73 0
65 67 -71 0
-14 -47 63 0
6 26 35 0
61 -64 -68 0
29 -36 75 0
15 26 -49 0
2 -7 -36 0
20 23 30 0
-1 -17 40 0
3 -8 -62 0
15 -27 -66 0
8 37 59 0
34 -59 67 0
-20 36 70 0
9 25 51 0
24 -43 -48 0
-20 -34 38 0
8 -49 64 0
-43 -54 -70 0
6 8 -43 0
23 -62 71 0
37 53 -69 0
26 -48 71 0
13 27 28 0
-26 -55 71 0
8 36 -48 0
-16 45 55 0
7 -10 15 0
24 -63 -75 0
38 -40 56 0
-1 30 66 0
-24 -43 74 0
-26 39 -60 0
11 -43 -66 0
11 -47 70 0
12 -66 67 0
6 15 48 0
-34 51 58 0
-29 51 -61 0
1 -49 -61 0
-41 47 -50 0
3 34 66 0
40 -62 -70 0
-19 -25 -58 0
26 37 -46 0
-20 -29 61 0
9 -25 -74 0
-12 -30 63 0
-4 -61 66 0
-17 -24 -54 0
-15 27 -34 0
28 30 -39 0
-22 35 -51 0
-18 -34 -67 0
-39 47 52 0
57 66 69 0
-13 -14 -30 0
11 -53 69 0
15 -43 -47 0
6 -28 -43 0
-11 31 63 0
19 38 -69 0
-28 -58 74 0
-16 -27 39 0
-27 -55 -59 0
-44 -47 54 0
4 13 -25 0
-8 48 -68 0
31 69 -73 0
3 -17 42 0
-30 42 46 0
9 -17 43 0
-18 42 44 0
21 25 26 0
12 -32 70 0
10 -47 55 0
-19 32 56 0
-14 20 66 0
6 15 -48 0
-24 -59 -74 0
-53 -58 59 0
19 -46 -73 0
22 -63 -64 0
-13 32 46 0
8 56 -73 0
-4 -7 -29 0
-27 31 46 0
45 54 -61 0
21 31 66 0
-17 -46 60 0
-14 16 53 0
29 -35 41 0
10 -59 -71 0
13 26 -59 0
-14 -50 75 0
-38 -68 -72 0
1 -57 69 0
-12 13 45 0
-40 -71 75 0
-22 -29 -71 0
-30 -32 -60 0
-4 40 -72 0
-24 -25 -69 0
6 -37 -56 0
-38 55 70 0
8 50 -51 0
19 -30 52 0
-4 -69 -74 0
-3 -29 -52 0
-16 -25 67 0
-35 45 69 0
-54 -71 -74 0
-8 -24 -73 0
-15 -55 -69 0
9 25 -65 0
14 -30 60 0
-9 24 38 0
29 57 -69 0
-6 -9 63 0
-12 -32 34 0
-34 -68 -69 0
16 23 -57 0
33 -51 -62 0
33 -35 39 0
13 -28 60 0
12 36 -66 0
-1 61 68 0
-9 -27 -66 0
2 49 -54 0
-18 37 59 0
39 -48 55 0
14 58 62 0
4 -41 -71 0
6 -16 61 0
12 -38 48 0
21 35 -72 0
18 37 50 0
-14 -19 73 0
-19 42 49 0
-33 48 55 0
-36 59 73 0
-31 42 50 0
-21 -31 39 0
12 -50 -63 0
-38 53 -67 0
-9 -14 66 0
22 -27 73 0
18 -35 -54 0
-10 -49 69 0
36 50 -60 0
-5 -20 -57 0
-59 -60 61 0
-19 -56 63 0
4 -49 51 0
16 53 -59 0
34 -54 -58 0
24 31 41 0
-19 -35 52 0
-5 -7 31 0
-7 14 -57 0
-11 -16 -44 0
38 -43 -58 0
-3 24 33 0
20 -38 66 0
-23 38 73 0
-16 53 73 0
6 -31 -67 0
-1 -12 41 0
7 -30 31 0
-28 40 -54 0
-19 30 -47 0
1 -47 60 0
-36 -41 57 0
42 -62 71 0
24 -47 54 0
48 -57 71 0
19 67 -74 0
22 32 43 0
4 -9 -55 0
-11 -15 -57 0
-24 -42 -51 0
-42 57 -68 0
-37 -46 64 0
-12 26 -37 0
-20 51 -53 0
-24 -32 -58 0
-7 -20 47 0
-19 28 59 0
14 -20 -66 0
16 -51 65 0
-61 -62 71 0
35 -59 -74 0
10 -41 64 0
40 -60 -66 0
4 -53 -64 0
17 -32 36 0
-12 -13 28 0
53 -67 -73 0
-15 -56 -61 0
-35 -58 72 0
-32 48 -59 0
6 -11 -21 0
-10 -16 37 0
-23 -44 68 0
-16 -55 -72 0
8 11 63 0
9 -47 53 0
35 -41 -67 0
-32 -47 -74 0
-4 5 -59 0
14 -61 -66 0
3 -14 -42 0
-26 39 -70 0
-34 54 -59 0
33 61 65 0
-2 -45 48 0
-8 23 59 0
28 -48 -56 0
-13 14 19 0
-13 16 -60 0
14 27 51 0
-10 -29 -72 0
2 -53 -56 0
9 52 -70 0
22 30 -36 0
-9 21 -56 0
-17 -32 -36 0
4 57 66 0
1 6 17 0
-17 24 39 0
-21 40 49 0
10 11 25 0
-3 -28 41 0
-34 55 70 0
2 -44 65 0
7 -48 -51 0
34 47 51 0
-26 -34 60 0
18 -50 73 0
-11 -15 -65 0
10 57 -63 0
-26 28 39 0
-5 22 -56 0
33 -49 -73 0
-15 -56 -75 0
42 -56 65 0
-21 54 -75 0
-19 31 -44 0
-60 -64 70 0
-3 -18 -37 0
-3 35 39 0
15 40 55 0
-9 36 66 0
38 51 -60 0
15 17 -63 0
13 -38 -43 0
7 52 -53 0
9 49 57 0
-31 49 -71 0
9 -38 59 0
2 -46 -54 0
15 -23 -32 0
35 37 -50 0
-27 -34 -67 0
-40 -63 73 0
-16 41 61 0
23 37 -55 0
-9 42 64 0
-22 -47 53 0
20 37 73 0
19 -25 35 0
-7 -28 37 0
41 -52 -64 0
11 31 61 0
-29 58 -68 0
18 -19 75 0
-3 -47 -55 0
-31 -44 57 0
-26 -50 67 0
18 25 71 0
21 -28 75 0
8 31 -53 0
-63 -65 -66 0
-56 -66 71 0
22 -55 63 0
11 -19 23 0
-4 7 -26 0
62 -63 -73 0
6 -49 -59 0
68 70 74 0
-10 -25 70 0
-37 58 69 0
5 -9 35 0
-29 -57 -62 0

