c Generated by rand.py 75 375 3 282103
c Generator source: https://github.com/aaw/sat/blob/master/gen/rand.py
p cnf 75 375
-44 57 -65 0
-24 -34 66 0
10 46 67 0
-3 -25 -70 0
1 -32 -64 0
-42 65 -72 0
8 57 -59 0
5 -8 70 0
-8 53 -72 0
-23 -57 -66 0
-36 65 75 0
1 32 62 0
13 -18 41 0
-10 -30 -31 0
-9 24 68 0
45 -58 -75 0
4 5 6 0
24 65 69 0
-27 -33 41 0
-1 -16 -51 0
20 27 -63 0
-6 24 -68 0
21 24 -28 0
12 -44 -74 0
-6 42 57 0
20 47 -53 0
-8 54 65 0
10 -15 44 0
-6 25 29 0
-14 -55 65 0
-4 5 -57 0
13 48 -70 0
-12 -16 -64 0
8 14 -30 0
23 34 -57 0
8 -40 -69 0
-5 69 -73 0
43 61 -75 0
4 -11 -50 0
1 35 74 0
2 37 48 0
29 -68 -72 0
-37 -44 -57 0
20 33 44 0
18 51 53 0
1 -24 73 0
-3 -30 -46 0
-19 45 -67 0
44 -65 -66 0
-38 -69 -75 0
5 -24 -55 0
3 62 74 0
-17 -26 45 0
29 51 -73 0
-3 40 44 0
-13 27 -63 0
-17 41 75 0
-8 -33 54 0
-6 21 40 0
28 -44 50 0
32 39 -44 0
43 67 -75 0
-26 31 -62 0
-9 -30 36 0
21 -29 -50 0
1 45 -65 0
3 14 -60 0
1 -49 60 0
-1 27 41 0
-17 56 -58 0
-15 -38 -43 0
-6 -18 -31 0
-37 42 -64 0
-12 48 -58 0
19 -38 -73 0
-29 -39 -47 0
6 -34 37 0
-12 32 -43 0
8 26 -40 0
-14 51 53 0
7 -21 -42 0
65 -68 69 0
19 -41 -60 0
-33 60 -69 0
10 -49 -68 0
-15 55 -62 0
-11 68 -70 0
-44 47 -58 0
14 19 62 0
27 36 60 0
16 50 -74 0
15 -44 47 0
12 40 52 0
-2 -18 25 0
5 63 -65 0
-16 72 -74 0
3 43 -53 0
-26 61 68 0
6 35 -45 0
10 -11 75 0
-13 -35 38 0
14 -19 62 0
29 50 63 0
-10 -50 74 0
13 -17 -55 0
9 30 51 0
-60 71 72 0
7 66 71 0
6 -11 58 0
-1 -32 -33 0
9 41 -44 0
18 -46 -66 0
10 19 32 0
-10 48 -49 0
48 59 60 0
-11 -21 58 0
21 33 -38 0
16 -55 -62 0
-10 53 73 0
28 -42 50 0
-9 45 -61 0
-11 -60 64 0
-5 13 68 0
31 -65 73 0
-37 -48 -68 0
39 -62 69 0
-19 40 -47 0
3 29 64 0
-21 -22 -60 0
38 -43 70 0
-21 36 71 0
-10 -24 36 0
-17 -31 -74 0
-28 -29 -49 0
2 -45 58 0
-4 7 -48 0
15 65 -66 0
-21 -27 41 0
16 25 -61 0
-27 50 60 0
-45 73 74 0
-8 9 -31 0
-14 26 30 0
52 -62 -69 0
-17 -59 -62 0
18 -60 -66 0
-1 -62 75 0
-24 -34 -69 0
50 -55 -75 0
-21 32 74 0
34 -49 55 0
10 -39 -41 0
-8 -22 74 0
15 30 51 0
1 38 41 0
3 -31 66 0
-10 -27 -43 0
-28 -48 -66 0
-12 -53 -69 0
15 37 -47 0
-46 56 57 0
6 22 -73 0
-5 -13 -16 0
-14 35 36 0
-23 29 -56 0
3 -12 42 0
34 -42 -57 0
42 -48 67 0
-15 -17 74 0
2 -50 74 0
-12 31 -55 0
56 -60 63 0
11 -37 67 0
28 -51 60 0
31 -37 52 0
12 -41 64 0
-17 37 51 0
22 -63 69 0
18 30 70 0
17 -29 61 0
6 -57 -64 0
-44 -45 -65 0
-53 -59 63 0
25 -38 62 0
26 -36 -74 0
-5 23 46 0
-16 30 -58 0
-25 -28 -48 0
-2 -28 -71 0
-43 50 -67 0
-13 -50 72 0
2 -13 -17 0
-15 -30 68 0
-1 -60 -63 0
11 24 -48 0
42 52 58 0
21 -40 54 0
-27 -44 -57 0
-26 31 42 0
11 -24 47 0
15 -16 43 0
31 49 -72 0
-12 -20 42 0
-8 20 53 0
-8 -36 -65 0
2 -28 -67 0
-8 -23 74 0
8 54 56 0
-7 49 -68 0
21 41 59 0
-27 -32 74 0
5 45 -48 0
1 17 -27 0
7 -36 45 0
45 -48 -69 0
19 -35 61 0
4 11 72 0
-5 13 -71 0
2 -56 -60 0
1 13 -42 0
-33 41 69 0
5 -23 49 0
38 -43 50 0
20 73 -74 0
13 -23 -66 0
-13 -40 53 0
-24 -31 50 0
39 42 61 0
25 64 -70 0
11 12 22 0
-5 -18 44 0
-11 -15 29 0
-2 3 15 0
-27 28 70 0
-29 40 -52 0
-11 -33 -56 0
-7 -11 -67 0
-4 17 41 0
-3 -7 -51 0
-4 9 57 0
1 36 -57 0
-2 47 53 0
42 -65 -67 0
-7 36 -55 0
23 -42 45 0
-25 56 -57 0
-28 47 -75 0
39 -48 63 0
-17 38 -49 0
-2 -9 -56 0
-1 -10 -12 0
11 -20 -21 0
11 25 -39 0
39 -61 -69 0
-18 32 36 0
-3 29 39 0
-1 15 26 0
11 -23 29 0
44 47 49 0
16 -19 20 0
-6 -19 -49 0
1 -14 57 0
11 19 -58 0
-19 63 -65 0
-36 37 -74 0
-19 59 -67 0
-4 9 -23 0
-24 53 72 0
-1 24 -34 0
-27 -67 -69 0
-29 32 -71 0
21 -32 53 0
-29 -33 -65 0
-11 25 -64 0
28 -43 62 0
-23 -28 37 0
4 7 -14 0
-52 60 65 0
24 46 -56 0
15 54 -60 0
35 -61 -66 0
-12 -66 -73 0
-15 -27 -65 0
27 35 51 0
-18 28 -57 0
3 -19 -73 0
40 59 62 0
-34 35 36 0
-15 -59 -64 0
-9 18 -37 0
-7 13 63 0
10 -37 60 0
23 34 62 0
56 -57 -74 0
-14 27 39 0
1 11 -68 0
-2 9 21 0
-26 -28 66 0
24 -64 74 0
38 -53 63 0
-8 -28 -45 0
-28 -49 65 0
15 50 -54 0
2 -32 -56 0
10 15 -21 0
35 65 74 0
-11 -21 73 0
5 -18 49 0
21 37 -71 0
-8 -27 36 0
21 45 -66 0
-54 -64 74 0
25 -37 71 0
-28 -29 -30 0
-20 54 -60 0
10 13 55 0
19 23 -62 0
17 -64 -67 0
-22 36 -50 0
-8 16 -40 0
-20 29 -63 0
17 60 62 0
35 -50 65 0
-15 -23 -60 0
-11 -37 38 0
-33 59 61 0
10 -12 -19 0
-18 20 41 0
-39 63 70 0
12 13 18 0
7 -24 -62 0
-1 7 36 0
-20 -47 69 0
32 41 -48 0
12 33 -62 0
22 38 74 0
29 -43 -71 0
10 38 -41 0
-18 -27 64 0
-8 58 -69 0
-4 -50 -66 0
15 44 -48 0
27 -51 54 0
-22 42 -75 0
-30 32 55 0
33 47 -58 0
23 55 -66 0
-15 30 46 0
9 19 -74 0
20 35 -57 0
2 -18 29 0
5 10 65 0
-6 -41 -47 0
-30 54 -75 0
22 34 64 0
25 52 -54 0
-19 -27 39 0
43 51 -73 0
25 45 -58 0
-8 14 -44 0
58 -64 70 0
18 -20 -32 0
13 -30 48 0
-56 -61 -74 0
18 22 32 0
10 11 69 0
23 -31 57 0
41 -44 58 0
4 62 -75 0
-32 -73 -75 0
10 55 65 0
-6 25 -52 0
-13 -20 60 0
9 32 -46 0
-13 -33 44 0

