c Generated by rand.py 100 500 3 52208
c Generator source: https://github.com/aaw/sat/blob/master/gen/rand.py
p cnf 100 500
16 55 69 0
-38 60 -67 0
-8 -61 65 0
-13 -23 -71 0
55 -71 73 0
8 24 -63 0
60 -86 -92 0
21 -32 80 0
2 29 -91 0
-23 -70 -91 0
45 61 85 0
23 34 -66 0
20 -55 -87 0
12 -33 81 0
-28 76 91 0
-8 -54 -71 0
9 51 97 0
36 53 -79 0
-20 -62 -98 0
-57 71 -99 0
-1 9 -84 0
-2 27 -36 0
-28 33 76 0
-23 -93 98 0
-20 -33 -87 0
-32 34 -51 0
24 44 81 0
66 -71 -79 0
-8 37 -73 0
-41 -75 -93 0
-81 82 -86 0
40 67 -84 0
6 52 100 0
55 -89 -91 0
-30 61 70 0
37 -78 -86 0
58 -64 90 0
-47 -49 64 0
11 -56 -93 0
-14 -66 -86 0
22 -54 77 0
-6 18 -52 0
61 -82 96 0
-34 -48 -81 0
1 -16 -70 0
-24 51 -93 0
-3 44 78 0
-12 30 -53 0
25 -48 57 0
9 -13 -46 0
14 -59 -71 0
-4 -19 -31 0
-26 -63 -94 0
4 17 32 0
38 87 -100 0
27 -36 -91 0
1 46 59 0
87 91 95 0
-8 -58 -74 0
-4 26 -56 0
-28 55 -62 0
3 -48 67 0
-3 -7 -14 0
80 -98 -99 0
-54 62 -83 0
13 29 -64 0
4 31 71 0
-1 -37 -91 0
45 -79 84 0
-76 -78 -99 0
57 72 -89 0
30 81 -98 0
-1 52 56 0
15 47 -61 0
11 -73 -82 0
37 -78 -96 0
3 -26 74 0
-12 -22 -43 0
-16 69 89 0
8 -35 57 0
-24 -40 61 0
-2 71 -93 0
-20 -34 38 0
12 16 -90 0
57 74 87 0
-50 -61 74 0
25 -42 -51 0
-14 31 36 0
28 -95 -99 0
-27 -30 -79 0
-11 -70 91 0
-2 -78 94 0
-15 68 -97 0
3 48 -55 0
-8 -43 -68 0
6 40 -80 0
-28 37 -52 0
-51 -54 -81 0
-54 -65 73 0
-2 57 -81 0
-16 -72 -94 0
24 27 -93 0
29 -35 -68 0
-42 -46 87 0
-1 89 -97 0
53 91 -92 0
-31 -42 63 0
47 -52 95 0
52 -61 -98 0
80 87 -93 0
53 -81 82 0
-12 23 -95 0
-10 -15 48 0
-6 -55 87 0
10 -59 63 0
-13 34 96 0
-3 11 27 0
11 39 -44 0
-36 -64 -65 0
-23 -85 -100 0
-10 -68 80 0
31 52 -98 0
-11 68 93 0
54 85 -98 0
14 -90 -93 0
25 -68 98 0
-6 -54 -57 0
39 -63 -100 0
-14 48 68 0
-5 75 95 0
-5 21 -63 0
-73 -98 -100 0
12 37 -97 0
16 -27 -39 0
19 -29 -67 0
27 80 97 0
-9 -58 99 0
-9 -73 83 0
-74 -76 82 0
-22 47 -100 0
-38 57 -78 0
-42 84 94 0
-26 -83 -100 0
-32 50 91 0
42 65 79 0
-50 -97 100 0
56 -69 95 0
15 -63 -83 0
-53 -72 -99 0
49 66 -94 0
26 -30 -97 0
3 -37 70 0
7 28 84 0
-43 63 91 0
49 -58 -94 0
-31 -48 -60 0
21 -28 45 0
-6 21 65 0
52 70 80 0
25 -44 -75 0
-31 -70 76 0
12 -36 64 0
12 -25 76 0
-70 88 -95 0
-34 -51 -83 0
20 24 -68 0
-47 -55 92 0
-9 -51 -87 0
-25 -40 51 0
4 47 -77 0
28 -30 85 0
26 79 -92 0
45 80 95 0
-29 -48 56 0
14 19 -58 0
-5 -43 -76 0
25 63 65 0
-11 -49 75 0
-23 -86 87 0
-20 53 57 0
-2 27 44 0
-53 -87 -95 0
-14 -69 -75 0
-32 64 -66 0
17 20 80 0
-12 -28 -48 0
11 29 90 0
-30 84 -91 0
-7 11 -12 0
41 45 -56 0
25 -81 -94 0
-52 -89 -91 0
16 51 -100 0
4 -31 51 0
4 -37 -42 0
-6 65 89 0
-3 -28 -90 0
16 -77 -88 0
2 -6 50 0
9 -70 -92 0
-52 -68 -70 0
-7 12 50 0
-32 79 -82 0
12 -34 56 0
26 31 -68 0
2 54 78 0
7 -22 -39 0
-8 28 30 0
3 4 18 0
36 37 75 0
-4 -80 -85 0
64 -70 -88 0
59 -63 -86 0
-17 62 76 0
-17 19 -75 0
-40 -61 -72 0
23 31 -49 0
1 5 -37 0
24 28 51 0
75 -96 -97 0
-12 -33 -42 0
26 31 -77 0
20 35 -58 0
-3 18 -67 0
17 -67 97 0
43 -51 -89 0
-34 -68 -81 0
-10 15 29 0
-24 39 55 0
-4 -31 -91 0
-78 -85 -88 0
-83 -94 99 0
-35 -64 -84 0
12 17 -95 0
5 6 -44 0
-25 88 -100 0
5 68 76 0
14 84 -100 0
66 67 85 0
10 33 46 0
7 55 82 0
40 -45 -84 0
12 -54 -63 0
9 -11 80 0
-35 82 -90 0
6 -28 -85 0
-10 49 -61 0
7 -26 67 0
24 -85 -88 0
-23 -25 -89 0
-26 44 -87 0
8 -51 -84 0
-21 38 -77 0
-6 29 -68 0
-9 -49 -95 0
-1 5 91 0
-33 -66 -84 0
59 -88 89 0
-7 -48 -85 0
11 44 -84 0
-43 68 -71 0
6 20 -74 0
35 -82 100 0
-39 -89 -92 0
33 68 94 0
14 37 41 0
15 30 31 0
-1 -15 -29 0
-28 80 91 0
71 -72 -84 0
14 -87 -88 0
31 78 -85 0
-40 79 81 0
-44 69 -72 0
11 50 72 0
-9 24 -61 0
25 -63 64 0
17 -36 -39 0
27 -34 -70 0
11 47 73 0
-11 41 -52 0
3 67 -69 0
12 48 59 0
28 -40 -76 0
-15 60 -95 0
9 -83 -88 0
73 81 88 0
24 86 -100 0
27 -40 -52 0
63 86 -90 0
43 51 -58 0
-60 68 -71 0
13 -32 49 0
37 47 -50 0
4 -47 66 0
-5 15 -66 0
24 -25 -48 0
-32 68 97 0
23 58 95 0
20 56 74 0
-36 -54 -90 0
-50 -58 74 0
76 90 -97 0
-10 65 -73 0
-54 85 98 0
32 -34 -95 0
-17 -39 87 0
-15 -29 -78 0
26 -41 65 0
-73 92 -93 0
-32 -84 96 0
36 66 -73 0
-48 67 -97 0
-8 59 60 0
57 58 71 0
-49 64 -85 0
-27 -36 43 0
-8 28 -90 0
-15 26 -93 0
5 -36 -46 0
-12 40 49 0
-9 -14 -45 0
-25 -54 82 0
49 -50 74 0
-14 -27 -46 0
60 65 76 0
1 -9 68 0
-23 -52 75 0
-61 88 -90 0
-12 14 -66 0
13 30 81 0
-31 -50 76 0
2 20 -40 0
-62 68 -99 0
-52 -60 76 0
-47 78 -96 0
-27 53 97 0
-4 -26 98 0
26 61 89 0
15 24 31 0
8 -63 -91 0
-48 -73 -81 0
-4 -90 -92 0
28 -86 94 0
-46 -79 -99 0
-4 29 38 0
-44 64 -68 0
73 -80 -100 0
32 59 -74 0
36 41 78 0
-11 68 -83 0
-13 -83 -85 0
18 -33 -44 0
-11 -20 38 0
32 -57 -94 0
37 77 -91 0
10 54 -100 0
-7 -18 35 0
-42 45 -57 0
-73 -77 -90 0
-1 33 -48 0
81 87 -88 0
6 -37 47 0
-31 77 91 0
-34 -49 -79 0
6 -83 -91 0
-64 -90 92 0
1 63 83 0
21 -39 74 0
-6 29 57 0
27 -32 38 0
55 77 -98 0
12 -36 -72 0
-12 -41 -59 0
-37 -42 64 0
12 -23 29 0
40 82 -83 0
-11 -25 77 0
-54 97 100 0
-27 74 92 0
6 10 91 0
5 65 89 0
2 -3 44 0
-19 -52 98 0
-27 32 64 0
37 -43 -100 0
-1 36 65 0
-35 -46 48 0
27 90 -93 0
42 58 -94 0
-7 40 46 0
16 -38 39 0
11 -67 91 0
-22 26 -36 0
31 -97 100 0
-2 -55 76 0
-11 52 70 0
14 15 91 0
-53 -64 -66 0
-48 64 87 0
4 -73 -85 0
21 53 -79 0
12 -24 67 0
-8 -45 -97 0
-35 87 -98 0
-27 42 -57 0
30 70 87 0
-1 -2 10 0
6 -14 58 0
61 97 100 0
-38 64 -98 0
-54 -66 -88 0
-12 -52 -93 0
-20 78 89 0
41 -64 -67 0
-19 44 -47 0
-25 -91 -95 0
-3 27 -79 0
37 -61 -86 0
-37 -38 -92 0
-34 47 -76 0
-4 23 30 0
33 -36 -54 0
-49 -83 96 0
-12 -87 99 0
-31 54 -57 0
-49 66 99 0
46 75 83 0
12 -26 93 0
2 -36 -73 0
5 51 -60 0
12 20 -77 0
-49 50 93 0
-3 -20 54 0
-45 71 98 0
2 -52 -89 0
6 15 98 0
-26 41 92 0
50 -59 76 0
57 -82 97 0
-32 41 -76 0
-9 61 94 0
2 -29 -66 0
-3 -31 -33 0
31 43 -80 0
17 -87 91 0
-17 42 79 0
-69 -88 -98 0
12 -30 73 0
13 -78 94 0
-39 41 62 0
-1 3 -81 0
32 68 90 0
46 -91 -97 0
23 -45 -49 0
-36 -55 70 0
26 -49 52 0
-73 -95 97 0
48 60 89 0
7 8 -47 0
8 57 72 0
24 -50 68 0
-2 26 -40 0
15 53 90 0
42 88 -89 0
10 15 -23 0
-16 -47 77 0
30 -32 -64 0
-12 -24 -46 0
2 18 -80 0
-10 33 41 0
3 41 -65 0
18 71 -76 0
57 -70 72 0
60 -62 -68 0
-18 28 42 0
-44 87 -88 0
14 42 87 0
22 27 52 0
-6 10 74 0
13 -33 -53 0
-54 -59 -86 0
70 -74 -100 0
-50 73 75 0
-35 77 -80 0
6 -15 -27 0
-58 -78 90 0
33 -69 94 0
66 96 -100 0
3 18 -24 0
5 -18 95 0
42 78 95 0
-7 -72 -87 0
36 67 92 0
-42 45 -94 0
-6 67 -73 0
-12 69 85 0
-51 -55 -57 0
7 66 -75 0
-10 60 83 0

