c Generated by rand.py 100 500 3 618258
c Generator source: https://github.com/aaw/sat/blob/master/gen/rand.py
p cnf 100 500
2 -18 95 0
37 -73 -77 0
-54 -81 93 0
34 -51 62 0
-3 57 68 0
2 -63 69 0
-8 -85 89 0
-1 -60 -84 0
1 -23 -92 0
23 33 -57 0
3 -27 -45 0
10 44 53 0
2 -23 98 0
-32 38 63 0
-5 37 94 0
11 -41 42 0
-63 -91 94 0
-29 -93 -99 0
21 54 -94 0
24 28 67 0
9 -10 -90 0
21 -25 -70 0
-10 -30 -52 0
9 -55 59 0
1 -19 43 0
59 66 -97 0
-26 -30 -80 0
-3 49 -81 0
43 51 75 0
-13 -85 93 0
-35 -66 -94 0
-12 86 89 0
-39 53 87 0
-6 26 -87 0
22 23 -26 0
22 -24 -55 0
-20 -58 -86 0
-2 28 46 0
36 89 96 0
1 -33 60 0
9 25 99 0
-23 -78 95 0
-74 -78 97 0
2 6 12 0
31 -51 -95 0
-15 67 -81 0
6 -8 -42 0
-21 88 -94 0
-28 -47 76 0
-1 54 -67 0
69 -82 89 0
3 -53 -61 0
7 28 63 0
32 -57 63 0
29 -66 -100 0
48 -58 96 0
65 72 90 0
9 37 -70 0
11 -35 -58 0
7 -96 -100 0
12 28 -71 0
-10 58 -66 0
-18 -25 -55 0
28 46 72 0
-25 57 -62 0
35 -58 75 0
-61 -69 -73 0
15 -58 91 0
-51 59 -61 0
45 58 74 0
2 65 94 0
15 -59 93 0
-19 -52 80 0
-3 14 -52 0
3 50 -75 0
6 -38 51 0
-19 -22 87 0
-22 49 57 0
-75 91 -93 0
50 -86 -91 0
-65 86 87 0
-29 63 76 0
1 46 -64 0
24 43 -56 0
-18 46 72 0
-35 -84 -91 0
-32 61 67 0
27 55 77 0
-2 -15 -82 0
-12 -37 -79 0
-42 -65 -77 0
-88 89 94 0
-30 62 -79 0
57 64 -86 0
8 97 -100 0
-24 -26 71 0
48 -76 90 0
-56 -83 -85 0
18 -84 -86 0
32 -33 -93 0
7 -41 49 0
-47 56 -95 0
30 40 51 0
-6 -21 63 0
2 -40 -60 0
-20 27 -45 0
-23 -54 61 0
-5 14 -51 0
-32 -88 98 0
-48 -67 88 0
-4 -32 -49 0
-48 -65 -97 0
-3 -16 17 0
21 35 84 0
13 76 84 0
18 71 86 0
-41 -49 -57 0
15 22 -38 0
-39 70 84 0
-52 -57 69 0
5 -56 92 0
1 -46 -82 0
35 -86 100 0
-1 31 33 0
-21 -35 43 0
31 36 51 0
24 -29 -57 0
74 84 100 0
6 35 -64 0
-26 46 95 0
-45 85 92 0
4 31 -46 0
22 -70 96 0
64 -73 -84 0
20 -57 -72 0
-41 86 -90 0
-76 84 97 0
45 -66 69 0
-38 -60 78 0
-21 92 -94 0
-42 -49 -58 0
-8 31 73 0
41 -59 -82 0
-37 94 99 0
46 -59 89 0
35 36 -65 0
39 -41 -46 0
19 -25 -66 0
21 -63 -87 0
-28 55 -99 0
-23 -26 -55 0
11 -61 -78 0
53 81 -100 0
-23 64 -67 0
-30 -60 -80 0
9 -80 90 0
39 49 99 0
2 6 32 0
12 40 89 0
15 16 34 0
27 -35 72 0
-10 -13 62 0
-31 40 88 0
15 -76 -81 0
14 40 81 0
45 -61 -95 0
-11 -14 61 0
51 -62 78 0
17 -50 62 0
-12 18 -97 0
-38 46 74 0
11 43 -48 0
2 12 97 0
-13 -16 52 0
-2 69 -94 0
45 54 -63 0
30 62 66 0
-52 -63 -94 0
60 75 87 0
-9 30 -90 0
-6 -8 -29 0
19 -61 -65 0
-15 -78 -88 0
3 37 -80 0
-3 -38 -56 0
-9 41 87 0
-2 -17 26 0
-53 61 -66 0
25 -29 -85 0
-66 -67 -86 0
32 39 -95 0
5 7 -8 0
-11 52 62 0
-27 45 77 0
-63 66 -97 0
23 81 83 0
5 -41 64 0
51 -62 -85 0
-14 42 -90 0
38 -72 87 0
27 -37 97 0
-9 30 -70 0
23 29 -80 0
37 -67 -73 0
18 55 89 0
42 63 98 0
-9 52 -54 0
43 67 -81 0
-10 -49 -58 0
19 -37 96 0
-24 -32 35 0
-5 16 -66 0
-24 63 66 0
3 -39 -45 0
-3 54 -83 0
42 -88 93 0
6 12 -89 0
-22 49 50 0
31 -56 -72 0
-24 70 -88 0
-36 76 -93 0
-29 34 -82 0
1 35 -41 0
72 78 -85 0
33 71 77 0
-55 64 -77 0
39 41 -79 0
20 -61 -62 0
-12 81 -94 0
35 -45 65 0
-8 22 -49 0
-57 74 98 0
20 71 83 0
2 54 75 0
12 -36 76 0
-32 -42 -45 0
45 -79 90 0
-51 65 -71 0
-49 52 96 0
-4 17 83 0
-19 64 82 0
9 -56 -92 0
-3 72 94 0
-48 -80 95 0
-23 -44 -61 0
-19 -60 -81 0
-7 -15 -27 0
-26 -43 92 0
10 -27 -88 0
-3 -28 -87 0
-64 -75 -80 0
-41 -69 75 0
33 59 -61 0
11 -26 -82 0
32 -36 60 0
-37 -82 -92 0
-17 -74 79 0
-15 60 -94 0
34 -61 -77 0
2 -37 -100 0
39 69 -88 0
-45 -59 68 0
-50 98 -99 0
-35 46 -54 0
-55 67 88 0
-2 15 77 0
-42 -73 78 0
-34 -76 -98 0
-7 -9 -87 0
8 65 88 0
-23 71 -78 0
1 31 96 0
59 61 93 0
10 -43 -57 0
-22 -34 -80 0
27 -73 99 0
-40 61 75 0
8 -25 -86 0
16 -20 -69 0
11 -83 97 0
42 -73 -79 0
17 24 48 0
3 -56 98 0
40 73 83 0
-22 42 -82 0
-9 11 -58 0
-1 11 -38 0
69 89 99 0
11 -32 67 0
-3 20 59 0
18 -53 98 0
-39 -42 -66 0
1 -31 -33 0
9 -54 72 0
-20 61 -86 0
8 52 -56 0
41 -52 -77 0
11 -13 -23 0
-22 -30 -40 0
18 -71 -76 0
59 -60 -64 0
-47 -53 -58 0
-15 -46 57 0
-2 60 79 0
-39 -48 75 0
39 -48 93 0
-4 20 -75 0
12 -40 -91 0
-20 62 93 0
5 -33 -88 0
31 37 -56 0
39 47 -61 0
-6 25 -57 0
28 -35 80 0
44 49 84 0
-34 83 -84 0
-26 -59 64 0
-22 -30 -67 0
-41 -63 72 0
10 -25 84 0
-14 75 -76 0
-5 11 49 0
20 47 -64 0
-33 -69 79 0
-50 -57 94 0
16 38 -80 0
28 42 -50 0
-14 46 93 0
-22 66 -80 0
7 74 -96 0
-28 -43 -47 0
21 -22 -46 0
-38 -47 84 0
-23 -53 79 0
7 -61 -67 0
1 -47 -96 0
-24 30 92 0
-80 81 -85 0
-24 -54 84 0
71 -78 -100 0
1 37 68 0
85 -96 -100 0
31 44 71 0
-27 63 -92 0
-62 -72 93 0
8 15 44 0
85 -87 97 0
-66 -68 -71 0
-12 -52 99 0
-15 29 -33 0
-1 5 74 0
43 -79 89 0
-12 -74 83 0
13 -43 -82 0
-27 78 -95 0
50 69 -71 0
22 -60 -99 0
20 48 90 0
7 20 -62 0
-16 31 61 0
-19 37 -84 0
14 56 -59 0
57 -66 -76 0
36 -39 -60 0
21 77 96 0
-21 73 97 0
-34 49 -50 0
11 22 -42 0
34 -56 -62 0
-46 52 -64 0
16 69 73 0
-13 48 54 0
20 -77 78 0
13 29 48 0
10 77 -100 0
2 8 -66 0
-29 30 -92 0
-14 -78 -97 0
3 76 77 0
-30 70 98 0
-5 -21 36 0
27 31 -75 0
6 11 -72 0
-38 76 -93 0
16 -89 -93 0
-53 -55 97 0
-29 -70 71 0
-63 69 97 0
-22 -43 69 0
-4 -15 -79 0
-55 69 74 0
24 -69 -77 0
40 86 -97 0
-32 -72 83 0
49 -69 -72 0
-19 29 41 0
-4 25 97 0
20 -22 26 0
23 51 82 0
-45 -66 71 0
9 -35 59 0
-13 38 66 0
6 -27 -34 0
6 -58 -66 0
-52 75 89 0
80 -90 91 0
-14 56 -76 0
-8 -23 31 0
-29 64 -92 0
-7 -41 85 0
-31 32 71 0
41 46 -71 0
-4 9 20 0
-4 59 -74 0
-27 58 76 0
-20 58 -95 0
-54 58 100 0
-13 -68 -93 0
3 52 -89 0
32 43 45 0
1 -70 -88 0
25 -65 82 0
1 37 93 0
-14 -49 57 0
9 39 82 0
9 19 -60 0
-45 63 -69 0
-30 72 73 0
-28 -65 99 0
38 97 -100 0
-3 -56 -100 0
6 -8 55 0
21 60 -89 0
14 18 90 0
-9 -45 76 0
58 -93 99 0
-57 -87 -88 0
-4 45 -53 0
-11 63 -86 0
-4 -53 54 0
-3 -12 -69 0
18 -27 92 0
33 78 91 0
-8 -15 -67 0
72 -75 86 0
-22 26 -69 0
2 -4 33 0
2 -58 -62 0
-20 47 72 0
-43 44 46 0
2 -7 -12 0
-4 63 -64 0
27 50 81 0
77 -86 -95 0
-7 9 -71 0
-13 -40 83 0
-1 -27 44 0
-4 17 29 0
-43 -64 94 0
52 -67 71 0
32 -46 53 0
-3 -15 98 0
-62 77 -79 0
1 52 -74 0
13 66 100 0
-60 76 96 0
19 36 43 0
-37 -61 69 0
-2 -42 -50 0
-30 -49 92 0
5 51 -98 0
12 51 -64 0
-6 -21 55 0
-71 -76 79 0
-4 41 99 0
7 34 58 0
-10 -59 95 0
30 -61 62 0
-51 -62 -73 0
3 -57 100 0
-50 92 93 0
7 57 79 0
26 -93 -94 0
-2 -34 54 0
10 -25 60 0
32 79 80 0
9 22 42 0
-38 -46 -57 0
27 34 66 0
34 -53 77 0
-3 -28 83 0
-35 -48 -97 0
29 41 -77 0
-44 -76 87 0
5 14 -20 0
-11 60 65 0
-26 44 94 0
24 73 -99 0
-17 68 -99 0
-48 -82 84 0

