c Generated by rand.py 50 250 3 506665
c Generator source: https://github.com/aaw/sat/blob/master/gen/rand.py
p cnf 50 250
21 36 47 0
16 25 44 0
1 23 -29 0
-7 -20 26 0
-5 -21 -30 0
-13 -20 22 0
-5 -13 28 0
7 16 41 0
2 -14 39 0
12 -21 29 0
-9 30 49 0
-29 37 -49 0
34 42 50 0
13 24 -33 0
25 44 -48 0
-9 -44 -49 0
27 -32 37 0
-13 -29 -39 0
28 -29 -48 0
-12 33 49 0
-24 -35 -49 0
-1 7 37 0
1 6 46 0
-5 -11 -29 0
-11 28 -33 0
-3 -21 29 0
11 -22 27 0
23 -26 -36 0
-39 47 -50 0
-11 -16 33 0
-4 29 -37 0
-1 16 37 0
9 13 18 0
15 18 49 0
-3 20 -46 0
-11 27 -42 0
15 -41 -45 0
7 -16 30 0
-29 -37 -38 0
-7 -16 47 0
-3 -14 -35 0
-3 26 49 0
-2 21 49 0
-1 -29 -45 0
-8 14 20 0
-3 23 49 0
10 16 49 0
16 -33 -37 0
-9 10 -39 0
32 -39 -45 0
21 40 -45 0
11 20 24 0
-6 7 26 0
1 -4 14 0
-18 29 31 0
9 21 -39 0
-26 28 -50 0
-20 24 39 0
11 13 -44 0
20 32 -45 0
-3 15 33 0
9 -29 -46 0
1 9 -33 0
23 -36 -38 0
-11 17 26 0
4 35 47 0
-18 27 49 0
3 16 23 0
11 -17 36 0
-3 -26 34 0
-19 -31 -39 0
-4 -45 -47 0
-21 -22 -36 0
-28 -36 -39 0
-12 29 40 0
-17 22 30 0
20 -27 -36 0
-33 35 -45 0
4 -9 46 0
-10 18 30 0
13 -19 -20 0
6 15 -31 0
7 9 -16 0
21 27 -50 0
-17 31 -44 0
-12 -29 48 0
-6 -32 -46 0
8 -16 -32 0
-26 28 39 0
-20 -39 -48 0
-1 35 50 0
-32 46 -48 0
4 25 -48 0
18 -29 40 0
-3 -32 -37 0
16 -30 31 0
24 41 44 0
2 -21 -41 0
20 22 -35 0
21 23 -39 0
13 31 44 0
-5 -7 -35 0
-4 -35 -42 0
-16 -24 -40 0
-5 19 27 0
-27 29 -35 0
17 -28 46 0
-15 29 47 0
4 -5 -40 0
10 20 26 0
15 38 42 0
13 17 -22 0
13 24 -34 0
5 -27 -33 0
5 7 26 0
13 -17 -39 0
19 40 -42 0
11 46 -48 0
-10 11 -14 0
-14 -20 -47 0
-1 -13 34 0
-13 41 45 0
13 -41 49 0
17 19 37 0
25 28 -43 0
-19 -31 -47 0
27 -30 -40 0
-8 15 48 0
-1 47 -48 0
-29 -31 -44 0
4 -18 -26 0
-15 28 -31 0
36 -38 45 0
-20 -22 -34 0
-17 33 47 0
-26 27 36 0
-6 26 27 0
21 -38 -40 0
5 11 -47 0
-5 20 45 0
12 -21 25 0
-1 -7 -35 0
-9 -35 -49 0
20 -37 -49 0
-35 39 -44 0
-21 -25 40 0
-4 18 -43 0
-2 -14 -40 0
-13 19 35 0
6 7 50 0
-6 -29 -31 0
18 -22 43 0
-1 -27 29 0
8 34 -48 0
-2 11 -30 0
34 41 47 0
13 29 31 0
-5 31 -50 0
17 44 -48 0
-1 -23 -35 0
1 -10 26 0
-3 -18 -37 0
9 14 -19 0
-30 -34 42 0
-28 29 31 0
8 -20 42 0
18 -46 47 0
-6 9 -45 0
-22 -30 -36 0
-1 31 34 0
28 -31 32 0
-12 -16 -48 0
20 21 43 0
23 25 26 0
-14 19 36 0
13 29 49 0
1 10 -33 0
8 -15 -39 0
-21 34 -50 0
-8 27 -50 0
13 -19 -37 0
-6 -14 42 0
26 -33 41 0
-7 15 -31 0
14 27 -41 0
12 28 -35 0
-4 -17 50 0
12 14 21 0
3 5 23 0
10 21 -41 0
8 -9 -31 0
28 37 48 0
-18 -31 35 0
16 -34 40 0
5 -26 50 0
-32 -36 -37 0
3 21 45 0
2 14 50 0
11 -12 -41 0
11 12 -42 0
8 -15 50 0
25 -28 32 0
-7 -14 -30 0
1 -33 -41 0
9 -31 39 0
-30 33 46 0
4 14 -17 0
20 32 -48 0
-2 15 -20 0
12 -27 -35 0
25 -26 -34 0
21 -23 49 0
-2 -16 41 0
9 11 23 0
-5 32 33 0
8 -24 -44 0
-9 -33 37 0
19 -27 50 0
-10 -40 44 0
-27 -33 -45 0
-9 11 31 0
2 -23 44 0
7 -14 33 0
-7 36 43 0
-9 18 24 0
-16 -30 46 0
-4 11 -30 0
-1 6 -47 0
6 -7 27 0
4 31 50 0
1 22 46 0
12 17 26 0
17 -28 36 0
-14 20 -46 0
-7 -19 -49 0
6 8 50 0
-4 -38 44 0
11 31 43 0
16 35 39 0
-41 45 50 0
38 39 -49 0
25 -36 -40 0
4 7 -40 0
-4 -15 -19 0
9 25 -46 0
-14 19 40 0
-41 -46 -50 0
-7 -31 -35 0
11 12 32 0
-1 19 47 0

