c Generated by rand.py 100 500 3 231303
c Generator source: https://github.com/aaw/sat/blob/master/gen/rand.py
p cnf 100 500
28 81 -95 0
10 28 -46 0
-5 -38 -90 0
46 67 91 0
-9 -46 72 0
-21 -45 90 0
9 -71 88 0
77 85 -89 0
-54 78 -95 0
20 83 -91 0
29 -85 87 0
-8 65 84 0
-8 -68 74 0
33 -35 -77 0
-27 -48 87 0
-2 -45 -67 0
-14 34 -80 0
-27 56 65 0
10 20 77 0
8 -63 92 0
46 -55 -56 0
-5 -55 70 0
-15 17 24 0
-14 32 -87 0
10 92 100 0
-33 82 87 0
-29 -38 -95 0
-8 9 64 0
3 21 98 0
13 -19 85 0
51 -65 -80 0
28 35 -91 0
-17 20 34 0
37 54 -81 0
23 38 -97 0
-7 -38 96 0
-25 -54 94 0
14 54 -91 0
-28 -55 67 0
11 -42 68 0
-31 60 -64 0
-28 63 66 0
20 26 -57 0
8 -20 -24 0
-12 -17 90 0
-5 -62 -67 0
7 -54 76 0
17 -24 -62 0
50 -60 -80 0
8 -88 93 0
81 83 -98 0
7 -63 83 0
-50 56 96 0
-63 -70 -100 0
-5 55 62 0
7 15 37 0
47 -63 77 0
31 -69 -93 0
-42 -45 -86 0
3 -17 -33 0
70 -74 94 0
-10 -29 -88 0
-11 36 69 0
26 -33 -63 0
-20 -22 -56 0
-40 91 93 0
12 -39 91 0
43 65 74 0
-33 40 -99 0
2 -20 -97 0
20 -63 -98 0
34 -55 93 0
-43 70 -88 0
-54 -75 -81 0
-8 21 -49 0
33 -45 -54 0
8 76 -92 0
60 -71 81 0
-38 -44 52 0
23 -50 -60 0
56 68 -94 0
29 44 -51 0
13 -19 -51 0
-3 43 -54 0
-53 -61 76 0
25 -49 77 0
33 -48 76 0
-19 -28 86 0
-26 -30 -31 0
-21 -76 81 0
3 -56 60 0
40 49 58 0
20 -26 -72 0
52 56 94 0
-26 34 40 0
74 76 95 0
18 -26 95 0
5 25 31 0
21 -27 -55 0
-3 -62 70 0
-29 31 63 0
-24 -58 -76 0
2 72 -95 0
24 37 -55 0
21 47 62 0
-4 7 -29 0
23 -26 94 0
56 63 100 0
48 65 -83 0
7 14 47 0
-21 55 -83 0
53 58 75 0
-37 43 -98 0
-36 -39 66 0
63 -72 -90 0
19 -22 90 0
41 76 80 0
-30 58 100 0
33 -36 48 0
-9 -57 -98 0
-23 -58 -91 0
12 60 78 0
15 42 86 0
39 47 -81 0
-74 -80 88 0
8 12 46 0
1 15 -25 0
-32 62 67 0
12 22 -27 0
13 -57 -68 0
-43 96 98 0
-6 28 -49 0
15 60 72 0
9 73 98 0
4 -62 79 0
-7 -59 -81 0
-19 -81 -98 0
-10 88 -93 0
23 -41 -42 0
22 31 74 0
-9 -35 88 0
68 69 -84 0
36 52 97 0
-44 -76 -78 0
-55 -66 71 0
1 19 100 0
42 60 -92 0
-7 58 -88 0
16 -42 50 0
-74 90 100 0
6 -52 -87 0
-13 55 75 0
-18 30 -82 0
-7 -18 -53 0
4 47 -94 0
-21 36 70 0
-31 36 38 0
-12 49 -85 0
-33 61 62 0
5 -77 -93 0
-4 46 -96 0
16 28 -70 0
-22 35 -91 0
27 29 -89 0
35 53 75 0
71 95 -96 0
1 19 65 0
-1 -7 -95 0
81 86 -99 0
-45 -80 95 0
-69 -74 -92 0
-14 -64 -71 0
16 37 -89 0
-27 34 37 0
-2 -71 77 0
4 -65 96 0
-28 39 54 0
25 28 -40 0
49 -79 -90 0
6 -25 65 0
5 -17 -71 0
-20 42 -49 0
34 58 -84 0
-7 70 -88 0
69 -70 77 0
20 49 -96 0
42 -90 96 0
61 -64 67 0
-12 15 46 0
16 -62 -81 0
6 -57 82 0
-6 -21 -61 0
-6 24 71 0
-27 35 43 0
-9 71 -97 0
14 -84 89 0
30 51 84 0
-46 -77 -87 0
-15 -75 88 0
-12 -28 -29 0
-25 43 -50 0
-26 -34 99 0
-80 89 91 0
47 -59 -94 0
-11 -12 -92 0
80 -92 -95 0
12 26 61 0
-4 15 -100 0
-28 34 -65 0
7 26 54 0
-5 -13 -43 0
-9 64 -82 0
4 -6 85 0
24 -55 80 0
-21 68 98 0
-28 -65 89 0
45 -49 -62 0
-18 -26 89 0
-4 56 68 0
-7 -54 -97 0
19 -22 -86 0
1 -45 -48 0
-12 -68 -96 0
21 28 35 0
19 -34 -76 0
-25 -54 74 0
-46 -50 -75 0
4 55 -58 0
-38 -81 -94 0
-36 69 -73 0
-31 -46 60 0
40 -56 -94 0
-23 39 83 0
-20 60 77 0
11 13 71 0
-4 -62 66 0
-34 53 96 0
-27 -31 -87 0
-6 -23 57 0
19 -66 -95 0
-18 40 -48 0
12 52 75 0
12 -15 -73 0
-5 -52 83 0
35 64 76 0
-19 -59 -75 0
-16 -22 -23 0
15 -73 87 0
13 25 -89 0
-19 -25 56 0
-5 25 49 0
43 -84 -90 0
10 12 27 0
8 13 29 0
40 46 -72 0
-1 67 -99 0
11 42 -54 0
-10 -11 57 0
-14 -19 -68 0
-15 -84 -90 0
45 61 -70 0
19 72 88 0
-24 -46 60 0
56 76 -90 0
28 59 -63 0
73 -92 -100 0
45 60 77 0
-3 52 -78 0
-3 -59 63 0
-19 46 48 0
25 67 -94 0
-38 53 86 0
-20 -28 58 0
19 25 41 0
8 69 -74 0
10 59 -92 0
-52 -73 88 0
-8 -22 84 0
57 -93 95 0
-40 66 75 0
10 -55 -91 0
-6 -62 -77 0
-8 -15 89 0
-17 22 -77 0
59 -75 81 0
-8 -12 88 0
16 36 98 0
52 -62 -75 0
41 -54 73 0
4 -35 -71 0
36 41 -99 0
-27 32 73 0
32 66 -79 0
3 10 -39 0
6 -45 -80 0
24 -27 55 0
-45 -66 -71 0
-11 -29 -93 0
30 35 46 0
21 24 95 0
-46 -57 90 0
-48 52 60 0
-24 -49 89 0
48 -63 83 0
-46 72 85 0
74 77 81 0
4 -57 58 0
9 69 88 0
7 13 -92 0
-15 85 -89 0
54 -61 78 0
-48 53 57 0
24 46 47 0
-12 -18 -95 0
-15 57 61 0
-47 -68 82 0
-60 -64 -86 0
42 -69 83 0
-3 -6 -99 0
47 83 -89 0
-22 -35 -96 0
-36 -86 94 0
20 -21 96 0
-36 -74 95 0
37 -45 -75 0
11 -47 -95 0
23 60 -78 0
9 -58 91 0
10 19 85 0
19 -26 -51 0
-7 24 -53 0
-2 7 61 0
-3 35 58 0
18 -21 -26 0
-1 -63 83 0
-45 64 -94 0
-27 48 50 0
14 92 93 0
-18 30 52 0
-30 32 -54 0
-22 48 93 0
-19 74 -78 0
51 -82 -90 0
-14 -68 -82 0
-5 45 -52 0
-17 40 43 0
-11 -98 100 0
-11 42 82 0
77 -89 -100 0
-4 -49 61 0
23 -45 -56 0
-62 -91 96 0
1 -44 -57 0
-17 19 53 0
-8 15 -61 0
-12 -23 95 0
7 -33 88 0
78 -91 97 0
-65 71 -83 0
30 63 79 0
-44 57 -81 0
24 -62 -80 0
-68 -84 -91 0
31 60 -86 0
-10 -72 -80 0
-53 -68 -74 0
-17 -65 -100 0
51 -54 -78 0
57 72 99 0
71 -91 95 0
23 -37 89 0
-38 -45 -53 0
13 18 -22 0
-57 -60 71 0
56 -74 -81 0
-28 62 83 0
11 -78 -85 0
4 35 -49 0
-16 37 -52 0
-31 -66 -81 0
-26 -39 -84 0
4 83 -94 0
-18 -25 55 0
29 36 58 0
10 20 27 0
1 15 79 0
43 74 -97 0
-14 -27 43 0
19 -67 98 0
-29 51 56 0
46 -80 -85 0
16 -66 -72 0
-31 -37 -55 0
-59 -81 -86 0
1 -24 -89 0
-52 68 80 0
-39 56 -80 0
47 64 75 0
-29 -56 -61 0
-43 62 -97 0
-43 -70 -79 0
17 -34 97 0
5 -28 -71 0
2 19 -100 0
-24 -29 -95 0
-32 33 66 0
21 43 -70 0
-9 -47 -58 0
22 42 72 0
5 37 48 0
26 -48 95 0
-1 -36 58 0
9 60 85 0
62 84 97 0
6 64 83 0
-11 45 95 0
-45 63 70 0
-18 -75 -76 0
2 -8 56 0
24 58 -76 0
3 8 -75 0
-2 70 95 0
-42 -81 -87 0
-9 -37 44 0
8 50 99 0
-30 37 -96 0
72 -79 89 0
8 -80 -89 0
-28 -81 83 0
-18 23 43 0
-20 43 -45 0
8 43 -67 0
35 -47 66 0
31 75 99 0
-36 -59 -79 0
3 47 -73 0
16 -37 78 0
-36 -65 -89 0
21 46 -62 0
-15 -26 100 0
13 14 -60 0
5 -17 23 0
-1 -27 67 0
4 -25 -82 0
10 50 94 0
-40 70 77 0
-6 38 73 0
-13 18 40 0
16 94 96 0
32 -49 51 0
-40 47 77 0
-7 -19 -65 0
10 -53 -89 0
-51 78 -93 0
16 -38 -98 0
-22 -94 -99 0
48 -61 72 0
33 -54 -71 0
2 15 -94 0
2 19 -50 0
56 -68 77 0
22 37 -63 0
45 -46 -66 0
-17 56 67 0
65 -72 -97 0
-38 -77 -94 0
-33 35 -60 0
23 86 -90 0
-7 14 46 0
27 63 -78 0
-2 -25 -73 0
-79 83 -94 0
6 42 -64 0
-21 42 -88 0
7 -11 -26 0
-17 -80 -97 0
-41 84 89 0
-5 -58 -85 0
10 22 -55 0
-13 -58 -68 0
-20 37 -81 0
54 80 -88 0
69 84 -100 0
-28 61 -65 0
38 -44 -57 0
44 53 80 0
30 53 58 0
51 62 89 0
-38 80 -90 0
-70 76 81 0
-1 60 91 0
4 -31 -88 0
-7 25 -97 0
-56 64 -71 0
7 -10 37 0
-28 -33 38 0
-30 -48 -76 0
-36 -85 -87 0
4 -51 76 0
7 45 -48 0

