c Generated by rand.py 50 250 3 340507
c Generator source: https://github.com/aaw/sat/blob/master/gen/rand.py
p cnf 50 250
20 -32 -38 0
19 22 -23 0
-22 -37 45 0
-6 -34 44 0
7 10 -19 0
8 40 -47 0
-8 -37 40 0
2 31 49 0
13 32 47 0
-27 -33 46 0
-10 31 -46 0
-13 -26 -46 0
11 49 -50 0
19 24 35 0
-15 38 -49 0
-6 -13 -24 0
26 33 35 0
20 -26 -47 0
-3 6 -9 0
-14 23 42 0
4 19 -35 0
18 35 43 0
-34 -40 48 0
-1 39 48 0
-16 22 24 0
-28 -35 -48 0
-12 33 -42 0
26 33 42 0
6 7 -35 0
-6 23 34 0
6 -15 -31 0
15 -24 -28 0
-1 -21 -34 0
-14 -47 48 0
-2 -21 -49 0
29 36 -44 0
22 29 -41 0
39 -43 48 0
-7 -30 -38 0
-8 21 33 0
-8 39 -48 0
20 -37 39 0
9 -10 -24 0
-17 37 48 0
8 -13 -31 0
26 -32 -49 0
7 17 -37 0
34 -41 45 0
12 31 -37 0
-1 -15 -50 0
9 -29 41 0
16 20 40 0
19 44 -47 0
-27 -33 -37 0
1 10 25 0
12 13 44 0
-4 -37 40 0
15 40 46 0
-2 -10 36 0
10 27 30 0
-31 32 41 0
26 34 -41 0
36 42 48 0
-26 -38 -42 0
8 9 -49 0
-11 -15 17 0
20 23 -34 0
20 23 47 0
-12 38 44 0
-4 13 24 0
-13 15 37 0
-2 8 16 0
13 -28 30 0
30 34 47 0
-13 -41 -47 0
23 -34 -35 0
2 -3 39 0
-18 -19 49 0
-13 30 -50 0
-15 -24 47 0
5 11 -47 0
-23 -33 37 0
27 35 -41 0
1 -19 -43 0
5 -24 -27 0
-15 -25 48 0
-18 -23 49 0
5 -37 -48 0
7 34 46 0
-22 -23 46 0
-9 34 36 0
10 26 -40 0
24 -26 -44 0
-3 34 -38 0
-1 -6 19 0
-3 -19 -50 0
2 18 34 0
27 37 -42 0
-9 19 -37 0
5 -20 -44 0
-9 20 -23 0
-29 -38 -47 0
-1 -44 -49 0
9 -11 -21 0
-29 -33 47 0
20 31 -47 0
-17 39 -42 0
-12 -35 -42 0
-27 -29 49 0
3 -39 45 0
-39 41 47 0
-11 -18 -22 0
-24 26 -36 0
8 -38 -46 0
15 22 -35 0
1 14 44 0
11 -19 -37 0
-5 20 36 0
-12 -18 -25 0
-25 -27 -46 0
19 30 37 0
5 26 -43 0
2 -9 20 0
-3 14 33 0
-12 13 49 0
-3 6 46 0
-1 10 -42 0
9 -35 -44 0
-24 -27 -38 0
13 32 -36 0
2 26 -38 0
-6 -10 -29 0
-9 11 -47 0
19 28 30 0
7 29 38 0
14 -20 31 0
-25 27 -30 0
4 23 34 0
7 32 -39 0
-8 17 31 0
-4 -17 37 0
15 21 -36 0
19 -21 -47 0
1 17 -41 0
-30 40 -43 0
-10 -20 43 0
-7 -14 17 0
-12 15 -22 0
19 20 -39 0
8 -26 -27 0
7 23 -28 0
-10 15 -46 0
-16 -35 -44 0
9 -33 -34 0
-2 15 50 0
12 -27 36 0
13 46 -50 0
15 -25 48 0
3 -13 28 0
3 -18 26 0
2 -18 42 0
-4 30 -43 0
-6 20 -37 0
-9 43 49 0
17 35 45 0
-7 14 -36 0
-7 -35 -50 0
-4 17 -47 0
-12 30 45 0
-22 -26 -41 0
-1 37 -38 0
-5 31 -36 0
-6 15 -33 0
-3 -41 44 0
6 22 28 0
21 -34 47 0
11 -22 30 0
-6 -20 45 0
-3 6 -20 0
4 -11 -50 0
15 21 42 0
-14 17 39 0
1 -18 20 0
-5 11 -19 0
2 -12 30 0
13 -16 -19 0
7 -10 -30 0
-7 -22 25 0
-17 23 -29 0
28 37 -48 0
9 25 34 0
-2 -6 -21 0
-10 21 -29 0
-16 27 38 0
3 23 -28 0
-7 -37 49 0
-3 -24 28 0
5 19 32 0
-13 -29 -45 0
-3 34 39 0
-22 -27 -42 0
-2 14 41 0
-5 -9 -14 0
-17 30 35 0
-1 23 30 0
-13 15 50 0
-13 -15 27 0
23 -32 49 0
2 48 -49 0
-6 24 -47 0
-6 34 -43 0
-2 36 41 0
-16 44 49 0
-5 -34 35 0
36 37 40 0
-21 -23 -37 0
-18 32 46 0
-42 -44 48 0
13 -21 49 0
10 -12 30 0
-2 13 -38 0
19 20 30 0
-7 17 -43 0
-5 -40 -45 0
4 14 22 0
40 -47 49 0
-17 42 48 0
-11 32 48 0
-19 32 -40 0
5 -6 -29 0
40 41 -50 0
1 22 -42 0
21 44 45 0
-14 -24 39 0
-1 16 -46 0
7 -9 -30 0
7 -21 25 0
-12 -16 36 0
5 -38 46 0
-8 -14 -21 0
-9 25 30 0
10 -22 -48 0
-7 47 -49 0
4 9 -12 0
-1 8 -42 0
-4 14 49 0
-7 -31 -33 0
-33 -48 50 0
-37 -39 45 0
29 30 33 0

