c Generated by rand.py 75 375 3 292217
c Generator source: https://github.com/aaw/sat/blob/master/gen/rand.py
p cnf 75 375
18 48 -53 0
33 -46 -64 0
-34 -39 67 0
2 3 75 0
-1 17 -71 0
27 56 -64 0
-10 -43 53 0
-8 49 61 0
7 22 -40 0
31 -59 -64 0
34 -55 69 0
-31 -47 50 0
4 35 -55 0
9 -60 -63 0
-3 -36 52 0
43 -58 -63 0
5 25 69 0
-30 35 47 0
18 42 -53 0
-32 -57 58 0
-24 -35 64 0
7 24 45 0
-11 36 -56 0
-13 -46 -50 0
10 55 65 0
-4 -28 -33 0
12 55 75 0
-34 -48 51 0
-43 -56 71 0
-44 69 -72 0
-24 -52 54 0
4 16 -62 0
-12 29 -39 0
5 56 65 0
3 20 -29 0
-6 -66 71 0
15 19 -28 0
24 -27 -34 0
-50 57 -62 0
-5 25 45 0
-7 27 69 0
1 -28 43 0
6 -61 71 0
2 31 -70 0
-16 25 -55 0
-1 11 -71 0
-25 -50 -66 0
3 29 -59 0
-47 60 75 0
14 -43 -56 0
1 -24 43 0
-2 -44 -47 0
8 -28 -39 0
-3 -20 -32 0
22 -50 -72 0
-11 -24 -43 0
-5 -10 44 0
-49 -67 68 0
8 -10 -55 0
-6 23 -57 0
-62 66 -74 0
-7 -10 -58 0
-37 40 -49 0
5 -22 41 0
-13 -41 71 0
30 -55 -60 0
23 -28 31 0
47 -69 72 0
-6 32 -50 0
3 23 -71 0
8 -35 -67 0
-20 -26 61 0
10 -58 68 0
-9 -45 -63 0
-4 -27 68 0
-24 -61 -75 0
-1 -9 -72 0
-13 -18 69 0
28 56 75 0
-1 -40 -51 0
-28 30 33 0
-30 33 69 0
5 -30 54 0
46 -54 -56 0
20 60 -71 0
-29 -38 -69 0
-25 34 55 0
-36 -50 -69 0
-15 18 62 0
13 38 53 0
20 42 64 0
35 61 70 0
-35 -52 69 0
-4 -34 61 0
-22 -51 -70 0
-20 -50 -55 0
4 -16 -38 0
-40 -55 -59 0
5 9 73 0
-17 34 -70 0
3 -36 -63 0
-32 -47 -50 0
-9 18 -23 0
-18 34 -67 0
-17 -20 -56 0
-23 27 -46 0
9 16 28 0
-5 -19 30 0
-32 -53 -55 0
-37 55 56 0
-34 -59 -75 0
10 -31 68 0
56 63 64 0
-7 13 -38 0
-8 15 47 0
-7 -13 29 0
-13 -41 -55 0
-5 32 70 0
11 -24 -58 0
-3 44 54 0
12 38 -59 0
7 -16 42 0
39 65 -67 0
-17 -48 66 0
-11 72 -73 0
-53 58 -74 0
38 55 -63 0
-19 -41 -63 0
-2 -45 50 0
13 -23 -46 0
20 23 -51 0
5 33 -34 0
18 -20 -52 0
-35 -56 69 0
-25 -26 -48 0
32 -39 73 0
-9 -13 18 0
-20 -33 -41 0
-1 -13 19 0
-56 66 70 0
-41 -63 -71 0
36 -54 65 0
8 25 58 0
-45 -50 -57 0
-7 11 -67 0
-24 -26 60 0
-31 -39 73 0
6 20 -49 0
20 49 53 0
21 -22 -39 0
27 -37 -62 0
-22 28 -56 0
-10 48 52 0
-4 6 60 0
-50 55 -60 0
2 44 71 0
30 33 70 0
-32 -38 68 0
6 23 -27 0
-9 -29 -30 0
-43 61 74 0
1 -4 -16 0
13 -16 20 0
-25 -46 51 0
-13 24 -42 0
23 -24 -46 0
-1 36 -59 0
-18 20 -34 0
13 -22 67 0
22 -25 41 0
-54 59 -64 0
21 -23 44 0
-52 -72 -73 0
24 -41 -55 0
8 -36 69 0
5 -31 62 0
-6 -15 30 0
-41 -50 72 0
-20 59 -71 0
-19 -31 -71 0
6 14 -50 0
-23 34 70 0
-4 17 -50 0
-9 43 47 0
-40 -48 -71 0
-19 58 -66 0
-55 62 70 0
4 -32 33 0
8 -32 72 0
-1 64 -67 0
34 44 -74 0
4 -61 -62 0
13 -17 27 0
19 -57 62 0
28 -56 -62 0
-23 39 46 0
-4 -43 48 0
-2 42 -63 0
12 48 68 0
-37 58 -69 0
-8 -26 -37 0
5 7 -16 0
3 29 31 0
3 -11 22 0
3 -36 59 0
-13 35 -37 0
30 -40 45 0
19 52 -73 0
-9 -16 59 0
-33 -59 69 0
-15 33 50 0
19 -40 63 0
16 -18 40 0
-38 44 61 0
-29 42 -74 0
21 -39 44 0
14 -26 -59 0
6 44 59 0
-5 -26 40 0
-4 31 -64 0
-1 28 64 0
-12 28 -48 0
17 -18 51 0
-38 -56 -68 0
11 17 45 0
-35 -50 51 0
-2 9 -49 0
15 -54 64 0
-15 49 50 0
-18 41 -73 0
-2 50 69 0
10 56 59 0
43 -46 70 0
29 -32 -36 0
10 -12 -65 0
23 46 -59 0
-3 -51 -69 0
-66 71 -75 0
-26 37 53 0
6 -29 50 0
-39 48 -71 0
-55 58 -69 0
-6 27 -67 0
2 37 -61 0
3 -12 -43 0
17 20 49 0
3 -34 46 0
-4 19 72 0
-21 53 54 0
-14 -36 48 0
-22 -52 -57 0
31 -34 -44 0
26 -50 74 0
-7 31 -40 0
-23 -49 63 0
11 -52 56 0
4 33 -55 0
-30 44 -50 0
11 -18 -26 0
16 33 50 0
-2 -28 47 0
-48 -51 68 0
6 37 68 0
-28 52 69 0
17 -21 22 0
8 -22 -68 0
-19 -35 48 0
7 -33 -74 0
-44 73 75 0
-4 -5 32 0
-35 54 73 0
-18 32 -72 0
31 -60 69 0
49 54 -63 0
7 -35 -53 0
-14 -16 25 0
-1 -25 -53 0
-13 18 -42 0
8 16 -64 0
22 46 75 0
20 -49 -75 0
-14 -38 56 0
4 12 64 0
-4 -12 60 0
-34 -57 59 0
-5 -15 -61 0
-44 55 -59 0
8 -35 69 0
19 67 -72 0
15 -26 72 0
-19 -40 -73 0
6 -68 75 0
-22 -44 69 0
-31 -58 -72 0
30 -42 71 0
-4 44 -48 0
-22 -23 64 0
-19 25 42 0
-2 -51 -75 0
-61 64 75 0
-19 45 -53 0
-15 -55 66 0
-15 -30 -41 0
12 52 65 0
14 -41 -71 0
30 -44 -59 0
-32 -33 54 0
-8 -15 16 0
7 10 37 0
-8 11 67 0
-5 36 -42 0
33 -34 58 0
10 17 27 0
-10 59 -62 0
-25 -31 54 0
-11 25 -61 0
-14 -19 25 0
-19 59 -61 0
-7 14 29 0
-2 -43 -75 0
-15 -20 63 0
5 18 66 0
57 -61 -63 0
20 -58 71 0
6 18 46 0
20 26 33 0
51 -52 72 0
15 -40 69 0
-10 -59 -71 0
-33 -34 67 0
-9 22 -25 0
9 41 64 0
56 -65 74 0
14 -48 -60 0
-30 49 72 0
-32 -67 70 0
8 -51 -53 0
6 -10 43 0
-19 -25 -26 0
11 32 74 0
-39 46 -49 0
3 19 -58 0
-42 -43 -52 0
14 -52 -62 0
-7 -13 46 0
-3 -49 -51 0
-4 55 -66 0
6 63 73 0
28 41 58 0
7 -32 -54 0
3 -22 35 0
2 34 55 0
-17 27 -34 0
13 59 -68 0
-26 -61 -72 0
-37 48 61 0
16 -21 45 0
-8 17 -41 0
-10 32 69 0
9 11 45 0
55 69 71 0
-36 51 67 0
-14 -34 -59 0
-32 -54 67 0
-2 4 49 0
-24 28 33 0
2 -11 26 0
1 -30 54 0
-28 41 -71 0
-21 28 41 0
71 74 75 0
-9 -11 37 0
16 28 -45 0
1 -42 47 0
27 58 68 0

