c Generated by rand.py 100 500 3 860986
c Generator source: https://github.com/aaw/sat/blob/master/gen/rand.py
p cnf 100 500
9 -36 -58 0
69 74 -82 0
-23 -40 96 0
-42 -72 -90 0
-14 -19 -88 0
-3 40 -55 0
29 44 69 0
45 -52 89 0
-42 -80 -99 0
-3 54 75 0
31 -45 -59 0
-12 52 55 0
-37 57 -66 0
-14 -37 40 0
72 -78 -84 0
-14 17 -58 0
1 -25 -71 0
76 -78 86 0
-19 -45 68 0
56 64 -84 0
72 90 -95 0
-31 -68 100 0
14 -27 -71 0
-38 -57 -71 0
-16 -29 -50 0
2 17 45 0
-1 12 -43 0
63 74 -76 0
-19 -48 83 0
-5 -13 -91 0
9 -32 -60 0
30 63 -93 0
-47 -57 61 0
-28 -32 52 0
35 77 -78 0
32 -46 -91 0
-52 -70 98 0
-27 -45 -86 0
26 44 -46 0
14 -21 -73 0
1 55 90 0
28 -89 -97 0
55 70 -71 0
30 81 90 0
-3 -29 92 0
12 -22 -69 0
34 -59 65 0
58 -74 97 0
-18 -49 -84 0
25 70 -88 0
23 27 -57 0
-22 -42 -66 0
-48 -77 82 0
5 29 -84 0
2 95 100 0
21 65 86 0
23 -50 -81 0
59 -60 97 0
36 -41 -75 0
-31 -57 99 0
-6 17 36 0
9 20 73 0
-15 -73 88 0
-52 -59 -91 0
8 -50 53 0
-33 44 55 0
-4 41 -47 0
-73 78 80 0
52 56 -64 0
24 -29 52 0
-53 -85 91 0
31 44 -95 0
28 34 84 0
5 -47 75 0
-14 -37 -40 0
2 51 77 0
39 -55 -56 0
5 9 74 0
-14 -16 -18 0
13 19 96 0
-29 47 -79 0
23 -26 27 0
23 86 -91 0
14 -29 91 0
33 68 -80 0
-12 -38 62 0
8 -33 -94 0
-33 -63 -72 0
4 23 82 0
-49 53 -80 0
-2 -44 -45 0
9 -38 66 0
-16 33 72 0
16 32 55 0
28 71 82 0
-50 70 80 0
-38 41 49 0
-19 -70 -72 0
1 -44 91 0
54 -57 79 0
-17 -20 -77 0
-18 68 -69 0
41 69 -75 0
15 -74 -82 0
-4 -48 -69 0
36 -38 84 0
-8 59 78 0
22 -44 95 0
-7 -36 -47 0
48 -81 99 0
-38 -73 92 0
27 65 73 0
-5 19 98 0
40 -53 94 0
7 -9 -93 0
24 -50 -72 0
66 67 71 0
28 65 78 0
24 63 -85 0
49 63 -64 0
12 60 -86 0
8 -69 70 0
11 -61 -85 0
1 -59 71 0
20 26 37 0
42 80 99 0
15 36 -89 0
20 -57 71 0
24 -26 -39 0
2 12 -75 0
-2 -26 44 0
-3 -21 74 0
-2 27 -52 0
20 23 -80 0
-3 53 -90 0
9 57 -79 0
-5 -24 96 0
-36 44 -94 0
-2 -48 77 0
22 -37 75 0
-26 -34 -44 0
7 16 -52 0
-39 -49 -72 0
9 -52 -73 0
-10 26 48 0
-13 -73 -77 0
7 -18 -70 0
-29 74 -91 0
24 25 75 0
3 -41 55 0
1 42 74 0
33 45 82 0
19 53 65 0
15 18 -68 0
54 92 96 0
-20 83 -96 0
-19 80 87 0
-26 41 56 0
-22 -95 -97 0
5 9 -69 0
10 15 25 0
31 66 81 0
3 -21 -92 0
8 36 42 0
-3 23 58 0
-17 -39 -80 0
34 76 -94 0
-19 -32 -61 0
16 42 -95 0
30 -53 70 0
62 -67 -98 0
-15 19 -59 0
29 31 -32 0
7 25 51 0
44 82 -88 0
33 -76 -82 0
48 86 94 0
1 -37 79 0
-23 41 -72 0
1 -5 36 0
-12 -55 96 0
-36 -42 -94 0
17 -18 47 0
10 -16 80 0
27 -52 -61 0
-5 33 45 0
19 40 64 0
17 83 90 0
29 -31 -33 0
-6 -63 92 0
-14 -41 -85 0
52 90 -95 0
-72 -78 92 0
-65 76 100 0
-10 -22 72 0
64 -65 93 0
12 56 70 0
-56 -93 95 0
38 70 -87 0
-18 -57 85 0
-13 -14 -95 0
59 62 -67 0
-10 -41 58 0
56 60 -64 0
-3 -29 82 0
-34 -96 -100 0
9 -58 91 0
-4 -13 -59 0
26 -51 -97 0
-15 20 -25 0
77 -82 88 0
30 61 94 0
-29 65 85 0
-63 -66 78 0
-19 -63 98 0
21 -79 -96 0
-56 -79 95 0
10 53 54 0
33 -52 90 0
9 -44 -94 0
-32 -50 -95 0
5 51 90 0
5 -67 -99 0
60 -61 -73 0
61 -64 -93 0
-9 -55 -65 0
6 34 -98 0
56 -70 77 0
-8 30 -37 0
24 -33 41 0
4 -31 -64 0
-16 -38 45 0
62 -82 -100 0
6 22 -87 0
20 -39 80 0
14 60 -70 0
24 -31 -82 0
63 -65 -93 0
53 74 79 0
20 -27 94 0
-20 -90 95 0
-2 28 82 0
5 -26 99 0
2 -87 88 0
53 54 88 0
18 -58 97 0
87 -93 -94 0
-7 30 -92 0
-37 71 100 0
35 37 93 0
-20 35 59 0
-41 -62 84 0
26 53 -77 0
-2 12 66 0
9 13 -49 0
-29 86 -92 0
-20 23 -78 0
16 -49 -54 0
-64 -69 -72 0
-32 -61 -74 0
64 79 94 0
-5 -10 100 0
19 -57 -91 0
31 55 81 0
-37 44 84 0
32 69 -86 0
12 -55 -94 0
6 47 93 0
11 -50 -91 0
-68 77 -93 0
-9 48 -72 0
32 -37 -78 0
66 -77 -79 0
24 -43 61 0
20 -21 97 0
2 -23 -54 0
-6 64 77 0
-7 -13 78 0
-10 -21 98 0
41 -64 97 0
-20 -71 -94 0
2 -60 -65 0
21 -44 -58 0
-28 -68 -85 0
-11 -15 31 0
-1 -64 73 0
40 -45 82 0
11 53 -91 0
33 50 -74 0
30 -50 -95 0
-32 -73 -80 0
-10 25 -67 0
31 -37 70 0
51 -63 -95 0
-17 -30 -67 0
-6 89 91 0
17 19 -34 0
71 77 93 0
-52 -53 67 0
-14 15 -49 0
-18 23 67 0
-12 75 -90 0
-19 -29 62 0
59 60 -74 0
11 -79 98 0
-13 -47 94 0
68 -69 -95 0
3 4 29 0
45 -55 -78 0
-22 -57 -80 0
-44 65 -97 0
-5 57 -87 0
-46 -84 92 0
33 43 48 0
-62 -76 -95 0
-18 38 -98 0
-25 -69 -94 0
38 76 92 0
3 -41 50 0
58 -63 76 0
-52 -72 -74 0
-20 -43 68 0
23 38 47 0
-66 -75 100 0
35 -41 -73 0
4 -38 91 0
-11 -46 55 0
35 -40 94 0
-56 -71 87 0
-6 8 21 0
-1 7 17 0
35 -47 55 0
-15 -51 59 0
12 -31 -87 0
-37 -41 -94 0
2 15 -43 0
8 -76 95 0
30 -51 63 0
-28 -54 88 0
38 48 73 0
12 29 57 0
-30 -80 -99 0
-41 69 -91 0
61 -66 96 0
20 -72 86 0
-34 81 88 0
52 -54 73 0
17 23 65 0
47 49 -51 0
3 -30 -66 0
-88 -90 -93 0
-18 34 85 0
-34 -56 74 0
-28 -47 -65 0
-69 87 -95 0
-15 -40 47 0
-4 27 -39 0
21 58 -78 0
4 46 -65 0
30 -43 51 0
61 72 91 0
40 -58 75 0
1 8 87 0
-8 -36 85 0
66 -76 -98 0
-18 19 -21 0
5 -13 -96 0
-32 -37 99 0
-9 -45 -70 0
-1 12 -32 0
-15 17 24 0
19 -76 84 0
47 78 99 0
5 -57 -83 0
-20 64 78 0
5 35 76 0
22 -78 -97 0
-3 18 64 0
-36 -37 -49 0
-23 -44 71 0
27 72 75 0
-15 20 72 0
26 -37 -65 0
-59 -88 94 0
3 -70 89 0
-10 87 -94 0
-26 42 -50 0
-11 -22 -35 0
-6 27 -100 0
13 36 56 0
-8 31 -78 0
37 -52 -64 0
-10 -63 -91 0
11 19 54 0
-10 -24 -89 0
24 -51 55 0
10 38 -39 0
-21 82 -88 0
27 -67 -94 0
34 81 84 0
-14 73 81 0
17 -45 88 0
28 -42 -57 0
10 31 33 0
15 -59 -71 0
7 -29 78 0
-16 -19 -59 0
23 60 78 0
45 -75 77 0
30 41 -82 0
4 37 52 0
-3 11 13 0
-33 -75 89 0
34 -43 -74 0
-16 48 -63 0
6 -11 100 0
14 -25 -89 0
33 -49 -80 0
-44 -46 -73 0
-20 -37 51 0
16 46 61 0
36 -52 -78 0
8 64 81 0
-18 88 -100 0
-38 -45 79 0
12 -15 93 0
-19 -68 -85 0
-43 -58 97 0
-30 -68 74 0
-51 79 -96 0
34 59 -79 0
73 -77 92 0
38 -44 61 0
-2 12 -38 0
29 -56 -86 0
-7 42 93 0
-48 61 95 0
49 -52 -54 0
-5 19 -93 0
40 50 -83 0
24 -28 -40 0
26 -27 73 0
-54 66 95 0
-34 -78 85 0
6 -32 60 0
17 -76 97 0
52 56 98 0
-6 50 55 0
-10 -44 58 0
-44 -52 94 0
8 28 47 0
-23 -70 99 0
-32 55 56 0
-22 -33 100 0
19 20 -54 0
16 -50 -98 0
-28 -53 -69 0
-27 -43 -61 0
-41 -82 83 0
-38 -61 -67 0
68 -77 95 0
-21 -77 -88 0
-1 10 -73 0
17 -24 -100 0
13 37 -80 0
-16 -37 81 0
-2 19 -99 0
73 76 -91 0
6 29 36 0
24 62 97 0
6 28 72 0
-64 -82 -86 0
13 60 71 0
75 -82 -97 0
8 21 -75 0
-5 18 -84 0
6 65 -90 0
5 7 34 0
-60 70 -80 0
15 16 41 0
-13 -37 90 0
8 -27 -94 0
39 72 76 0
-52 -63 -92 0
-30 62 70 0
-24 80 -88 0
-14 -34 -45 0
9 -32 91 0
27 -92 94 0
3 36 -100 0
-41 -45 68 0
-5 -28 -48 0
-66 -72 94 0
-11 63 -99 0
37 -49 90 0
51 -77 -96 0
-39 -49 -87 0
-47 -50 -73 0
39 59 96 0
21 -55 -59 0

