c Generated by rand.py 100 500 3 808823
c Generator source: https://github.com/aaw/sat/blob/master/gen/rand.py
p cnf 100 500
-5 17 -69 0
41 65 85 0
2 -42 48 0
-25 49 -66 0
-59 60 75 0
-3 63 -68 0
-51 57 64 0
3 19 -91 0
-1 35 -90 0
25 -40 57 0
3 29 -88 0
-17 22 43 0
-36 -53 -89 0
-9 -20 63 0
18 -27 62 0
-13 42 96 0
17 29 89 0
25 69 100 0
-67 82 -92 0
1 -71 79 0
-28 64 -84 0
-6 -88 -89 0
52 86 99 0
20 48 86 0
4 86 -93 0
-16 -28 43 0
-24 -86 90 0
3 11 -58 0
-20 -38 71 0
-37 -50 88 0
20 -34 70 0
-2 76 94 0
62 66 74 0
-33 42 46 0
4 17 -76 0
-13 70 72 0
-39 -50 56 0
-17 -44 61 0
8 -42 68 0
33 -34 -93 0
17 -50 -59 0
52 -89 93 0
-15 22 -42 0
-8 -41 -91 0
-7 -40 -94 0
-31 41 90 0
6 48 98 0
-28 -38 -82 0
17 -34 91 0
-20 -38 -42 0
12 -29 -55 0
-5 -62 -87 0
31 -32 -66 0
24 28 42 0
-8 -52 62 0
68 -93 -100 0
-26 -76 78 0
23 84 -90 0
-79 -89 93 0
-12 32 -95 0
21 48 88 0
-40 61 95 0
-42 72 86 0
-40 46 -97 0
-47 -58 -92 0
40 -56 94 0
-32 70 -98 0
-14 -88 -95 0
-2 -56 -99 0
-7 13 78 0
-18 40 97 0
32 63 -86 0
12 47 -52 0
51 -79 97 0
6 -65 85 0
29 31 96 0
-13 -20 -88 0
-18 21 56 0
3 -29 -68 0
45 -58 -72 0
-44 -72 93 0
-6 -34 -84 0
-7 75 -78 0
-35 -45 -78 0
-15 24 -40 0
-28 -57 72 0
13 55 -69 0
3 24 -42 0
-42 68 -73 0
-4 26 -41 0
-3 52 94 0
14 52 -84 0
27 -41 -100 0
3 33 -77 0
-7 49 89 0
17 -22 -32 0
36 -60 70 0
-8 29 54 0
-11 -45 -46 0
29 62 90 0
29 37 -63 0
6 89 -97 0
-8 30 76 0
-7 -79 -90 0
-16 -30 -68 0
25 -76 85 0
-22 -37 45 0
9 66 67 0
-57 58 -59 0
25 44 -53 0
-17 -59 67 0
-2 -8 -27 0
-35 47 89 0
-75 -80 100 0
-1 59 -67 0
77 -83 -84 0
-54 74 -90 0
53 -61 -62 0
5 -49 52 0
36 -45 76 0
-63 75 86 0
58 -66 88 0
-13 43 45 0
-15 37 49 0
-9 -73 -98 0
-7 -22 -45 0
12 -97 99 0
-7 21 28 0
-10 -25 -76 0
28 -83 96 0
26 -58 -92 0
-24 36 -52 0
-14 85 88 0
23 53 -80 0
27 43 -62 0
-32 78 -92 0
7 -81 83 0
13 -28 -80 0
21 -56 -87 0
40 50 96 0
-48 63 -74 0
-36 50 51 0
26 -30 63 0
6 43 -74 0
-12 -42 77 0
20 28 93 0
14 -42 -75 0
-2 69 93 0
-33 51 -52 0
-17 -53 65 0
-19 -32 -79 0
-46 71 -98 0
-49 53 62 0
13 -24 -77 0
37 80 99 0
-6 -48 96 0
-44 -62 86 0
6 -23 36 0
-2 -44 -85 0
-11 13 -30 0
-7 53 60 0
11 35 99 0
-27 69 -94 0
-7 28 -88 0
8 -11 26 0
4 -53 93 0
-7 -37 -51 0
20 70 91 0
4 24 -93 0
2 14 -85 0
68 80 -98 0
12 85 -91 0
-15 -49 -74 0
22 -58 -100 0
4 -9 83 0
-32 45 81 0
16 55 -86 0
3 -50 -67 0
-28 44 -85 0
37 -41 67 0
34 -58 -73 0
16 -46 54 0
10 -24 25 0
9 13 -66 0
-24 75 82 0
28 34 -63 0
-25 -34 -82 0
-14 22 -47 0
-12 -71 -99 0
-10 70 71 0
10 12 -99 0
26 35 61 0
46 51 77 0
-35 53 -78 0
34 70 -75 0
-11 41 -62 0
-8 50 -67 0
16 18 37 0
70 77 -95 0
-5 26 33 0
-41 -44 89 0
18 38 -73 0
27 -51 -88 0
2 41 88 0
-64 -87 -94 0
-5 -53 55 0
-12 -62 -94 0
58 86 -92 0
16 -64 -90 0
-1 -25 98 0
-13 -24 68 0
19 40 100 0
-7 -30 -78 0
41 44 -62 0
14 86 -98 0
-43 -81 97 0
-8 36 -88 0
10 -38 44 0
69 97 98 0
48 75 -78 0
24 -66 -92 0
31 57 -83 0
7 -15 80 0
-8 95 -96 0
13 -72 98 0
35 -45 94 0
-24 -48 -87 0
-12 19 -87 0
-14 -73 97 0
22 27 88 0
-20 -88 -97 0
-63 85 -95 0
-11 34 -76 0
-28 -72 85 0
-65 -93 -98 0
2 57 -65 0
-77 79 97 0
-37 -62 99 0
35 41 73 0
-21 -46 58 0
40 -63 -90 0
45 47 -65 0
-57 -70 -74 0
-12 29 -82 0
-41 65 -87 0
47 85 100 0
-44 -52 99 0
18 -79 94 0
-54 -79 -80 0
-11 31 68 0
-4 -38 -93 0
-28 -48 62 0
13 46 100 0
-12 -32 -68 0
34 66 68 0
-27 46 78 0
-63 -68 -97 0
21 -97 100 0
-24 27 -30 0
-4 87 -100 0
5 20 -49 0
-10 -19 -64 0
22 -54 99 0
56 83 -87 0
-12 -18 47 0
13 -15 92 0
-76 86 -93 0
-43 -48 -66 0
-24 -29 -67 0
-55 -56 60 0
-43 -46 67 0
36 71 -97 0
5 50 -86 0
-3 28 70 0
59 65 -87 0
11 69 93 0
-29 -71 -87 0
-39 70 -82 0
14 31 56 0
-5 -88 -91 0
1 -8 -45 0
-36 59 -61 0
-9 27 -62 0
-14 -58 95 0
52 54 61 0
-24 25 -65 0
-52 -53 92 0
28 -59 85 0
-12 -78 -86 0
62 -95 -97 0
23 76 -97 0
45 62 -85 0
13 32 89 0
2 51 68 0
18 -20 76 0
45 -64 100 0
-3 13 -35 0
-37 51 -79 0
51 -58 91 0
4 65 -81 0
27 -45 88 0
-60 77 86 0
-24 50 -100 0
-12 36 -55 0
-18 97 99 0
8 -25 35 0
-75 -78 80 0
32 -35 69 0
1 84 -100 0
74 79 -90 0
-12 16 81 0
5 26 -36 0
22 58 82 0
-20 -52 -90 0
-44 -87 -92 0
23 -45 71 0
-7 -8 -35 0
4 -27 -77 0
23 -35 78 0
-47 -62 83 0
6 -73 80 0
-32 60 82 0
-67 68 -70 0
-10 -58 -77 0
8 -34 90 0
-14 50 97 0
6 45 74 0
14 54 58 0
36 -44 -73 0
-18 30 -68 0
14 16 -56 0
74 -82 -97 0
-48 60 81 0
-45 61 -77 0
-11 37 78 0
-30 -35 38 0
10 -24 -46 0
41 -72 -73 0
-19 31 -52 0
9 12 -14 0
-34 -76 -78 0
3 -79 85 0
76 -92 -95 0
5 33 -74 0
22 63 91 0
31 -45 -71 0
-39 -82 83 0
9 -51 78 0
5 37 41 0
-28 51 -55 0
-15 -44 -99 0
1 -17 -92 0
-9 45 -91 0
15 16 -62 0
-39 -87 -88 0
-7 -88 -97 0
72 -93 99 0
41 46 47 0
48 -51 -91 0
-35 -47 97 0
-13 49 -68 0
10 -48 73 0
-7 -58 -63 0
-3 -32 94 0
-2 -16 57 0
39 41 96 0
36 -47 -94 0
-25 -38 -97 0
-32 -72 100 0
-51 75 -77 0
21 -28 -64 0
-9 76 91 0
-9 58 -69 0
55 84 93 0
-22 52 56 0
-29 73 76 0
11 -59 96 0
14 42 54 0
2 13 71 0
50 -58 -99 0
4 -69 90 0
-5 81 91 0
-12 -21 57 0
-7 -11 -32 0
9 -23 -50 0
2 51 70 0
-22 -52 91 0
-1 -31 -68 0
-90 -92 -100 0
-40 47 -59 0
49 71 -72 0
-10 68 94 0
41 -44 81 0
-32 33 -49 0
-3 -21 60 0
73 -83 97 0
-45 -57 64 0
-35 -42 -43 0
27 -73 -98 0
-4 78 -90 0
21 -62 -88 0
-31 -63 -83 0
47 72 84 0
-15 22 74 0
30 47 -79 0
3 -25 40 0
-13 31 36 0
28 35 96 0
-13 21 -77 0
21 -51 -71 0
11 -50 61 0
29 -85 96 0
-36 -40 -64 0
-7 65 79 0
13 -60 -92 0
-22 -46 -76 0
4 -23 66 0
-33 58 99 0
-11 59 -98 0
-20 74 -81 0
-37 -74 -80 0
1 -30 75 0
20 79 -97 0
-35 -46 -96 0
25 30 76 0
-6 -8 74 0
-80 93 -97 0
-15 -22 65 0
2 25 92 0
60 68 -74 0
-74 -75 -100 0
40 -76 -97 0
11 56 77 0
-6 -16 29 0
-17 -61 -100 0
3 25 -76 0
-19 -66 -89 0
-52 74 -90 0
-23 30 36 0
-3 -15 80 0
-48 -49 -83 0
-18 62 70 0
-50 58 84 0
-7 60 83 0
33 47 -51 0
44 66 -81 0
24 29 -47 0
-30 -92 -96 0
25 -53 -93 0
74 81 82 0
-44 52 -60 0
-8 22 -42 0
-51 71 77 0
63 -87 -95 0
-2 -35 38 0
42 86 97 0
33 43 -72 0
4 35 36 0
-11 91 93 0
12 30 -87 0
-15 -79 85 0
-7 44 71 0
-9 38 -60 0
3 -28 88 0
26 70 -82 0
34 -48 70 0
22 -55 -83 0
-40 59 -74 0
-3 53 96 0
-34 38 64 0
19 -36 -87 0
-18 -38 50 0
46 -51 -67 0
37 -38 -63 0
13 -15 -43 0
-6 -70 94 0
-24 -34 -78 0
1 -10 -25 0
-1 24 68 0
9 -62 -87 0
13 -40 -53 0
18 -51 99 0
-32 -78 89 0
-20 -83 -97 0
6 63 -99 0
-36 -48 57 0
-82 -85 93 0
6 -70 -71 0
-11 -13 -89 0
67 -77 87 0
-6 11 86 0
26 -66 90 0
-26 -48 -55 0
62 -68 86 0
15 53 54 0
2 74 93 0
36 52 -84 0
-20 38 46 0
-59 79 98 0
-43 -88 -98 0

