c Generated by rand.py 75 375 3 599552
c Generator source: https://github.com/aaw/sat/blob/master/gen/rand.py
p cnf 75 375
13 -33 -49 0
-4 54 -63 0
-53 58 66 0
13 35 70 0
15 27 56 0
16 60 -71 0
2 -50 53 0
10 55 -69 0
11 -18 58 0
12 34 -57 0
-1 47 50 0
-5 44 -64 0
34 -41 55 0
18 44 -61 0
19 28 -32 0
-23 26 -59 0
-22 49 62 0
27 -32 -49 0
38 65 71 0
-8 37 51 0
34 58 -60 0
17 34 50 0
14 -26 61 0
6 9 24 0
-22 61 66 0
-29 -50 65 0
36 56 71 0
19 -66 -72 0
-18 64 65 0
-1 3 28 0
13 -36 45 0
14 -27 -59 0
4 12 -62 0
-61 62 73 0
15 -57 -67 0
14 16 40 0
-53 -55 -69 0
-20 39 -55 0
-25 55 59 0
-34 38 49 0
-3 -57 59 0
-3 -12 -68 0
23 -30 47 0
-23 -29 -33 0
1 25 -63 0
-13 53 -71 0
38 -51 -71 0
-38 40 44 0
-30 34 75 0
-23 30 -73 0
58 72 -75 0
-9 22 -31 0
28 -54 75 0
-10 21 -70 0
-49 56 69 0
20 26 44 0
-62 63 -70 0
13 18 33 0
-41 48 52 0
-12 40 51 0
26 44 46 0
16 -17 55 0
-18 -28 70 0
-20 24 -31 0
-16 66 68 0
24 -32 -47 0
2 -22 65 0
-23 33 -75 0
68 72 75 0
-18 23 -72 0
-35 52 75 0
7 -29 45 0
17 -66 -69 0
6 -32 -46 0
21 -33 -75 0
35 48 -64 0
-3 28 29 0
5 24 -60 0
42 -45 56 0
13 -46 -49 0
21 -30 -58 0
-30 71 -75 0
32 -38 -51 0
18 47 -56 0
11 -58 61 0
-7 -27 32 0
19 -61 -74 0
-13 29 39 0
13 26 27 0
53 -59 -66 0
32 53 -54 0
-27 54 56 0
25 -39 67 0
-12 -43 -50 0
-24 -35 63 0
-26 34 57 0
-14 43 -54 0
-40 -63 -70 0
8 -28 -47 0
4 10 -40 0
34 -35 66 0
28 -38 -74 0
4 12 -45 0
-8 -24 -25 0
-12 -62 68 0
-4 26 32 0
-8 10 -62 0
-1 -20 -71 0
9 26 -42 0
12 30 -44 0
-27 -70 -74 0
26 28 48 0
-27 -52 -61 0
-4 -30 -31 0
9 26 37 0
4 15 -72 0
-19 -20 65 0
-11 -41 -74 0
7 -32 73 0
13 -32 -45 0
18 -28 46 0
4 -16 -65 0
-38 65 -73 0
-4 53 59 0
18 65 -67 0
-18 -30 55 0
-1 -4 -55 0
-15 38 62 0
-6 -44 67 0
42 -47 -66 0
-56 59 68 0
-41 66 -68 0
-20 -65 -67 0
10 68 69 0
-20 29 -64 0
14 18 55 0
-8 50 -66 0
-1 -14 57 0
-8 42 56 0
30 43 -72 0
34 -43 -49 0
29 -45 -56 0
33 43 45 0
-57 -58 68 0
-22 -58 68 0
27 -39 -55 0
-4 -7 -72 0
5 -12 -70 0
16 -35 54 0
11 57 -65 0
-18 45 -63 0
39 48 65 0
-37 -38 43 0
8 -22 -29 0
14 -50 -70 0
9 45 -47 0
15 18 54 0
2 -3 42 0
14 -36 -40 0
25 -32 -45 0
-39 61 -73 0
51 68 -71 0
16 61 -72 0
1 -8 -61 0
-4 44 -74 0
15 60 64 0
-4 14 58 0
-27 49 50 0
9 15 -50 0
39 56 73 0
-25 38 55 0
-2 19 -40 0
-26 27 -39 0
-1 -51 -74 0
-2 36 -74 0
34 69 -70 0
-32 53 -69 0
-6 -64 -70 0
26 -61 64 0
17 -42 -43 0
-48 54 -59 0
-36 44 70 0
-11 18 -21 0
54 -63 67 0
-21 33 -34 0
21 -30 75 0
-9 -18 65 0
-28 -44 -46 0
16 22 31 0
7 -26 -34 0
-27 31 33 0
24 35 -60 0
11 -51 -71 0
-33 -42 -56 0
-14 29 -73 0
-31 43 -64 0
-14 40 63 0
34 -36 62 0
6 -29 62 0
-4 6 58 0
-11 27 -67 0
4 47 56 0
16 35 39 0
-6 30 -56 0
4 -51 52 0
-15 51 53 0
14 46 73 0
-2 17 40 0
-8 29 -49 0
-39 -47 61 0
-9 -25 60 0
-8 11 -47 0
14 29 62 0
-14 -36 46 0
-31 -54 67 0
10 36 -75 0
-39 -44 71 0
9 16 -66 0
48 58 64 0
-31 -63 -71 0
37 58 65 0
22 -59 64 0
-17 -31 -34 0
12 21 33 0
26 39 -41 0
-12 -26 -38 0
8 66 72 0
26 -30 70 0
-20 -53 -67 0
-14 36 -65 0
15 16 -49 0
30 -49 -61 0
-32 68 69 0
-48 -51 70 0
-38 -44 -69 0
1 -15 -65 0
-7 23 -46 0
-12 21 74 0
23 -34 54 0
-2 -21 -39 0
-5 36 74 0
9 -29 -68 0
8 -18 -54 0
-7 26 60 0
-7 41 59 0
-53 -56 65 0
-7 54 69 0
18 19 -56 0
8 41 49 0
-6 17 35 0
20 -31 -62 0
-45 53 -63 0
-26 -70 -75 0
-24 -39 53 0
53 -65 -68 0
-15 -18 63 0
-11 -30 -63 0
-39 -44 67 0
23 40 -41 0
2 -13 -38 0
-7 -39 -69 0
-18 20 -46 0
-7 21 -67 0
6 -44 -73 0
12 -38 -67 0
21 -29 41 0
36 51 68 0
-11 16 -61 0
-4 -45 -52 0
-1 18 -34 0
3 -16 68 0
40 -48 -52 0
-7 -46 -75 0
17 -30 40 0
42 -55 -67 0
-3 7 -73 0
-19 33 -71 0
-7 -49 55 0
-33 58 72 0
4 -27 53 0
14 19 -66 0
39 -52 72 0
-20 32 -51 0
20 -38 -70 0
-13 24 -36 0
-13 -28 -56 0
-6 -26 58 0
-12 -50 -52 0
16 17 -54 0
21 -43 -64 0
-15 -49 -55 0
-55 -73 -75 0
-10 -46 -64 0
34 39 -41 0
3 10 40 0
-13 18 -48 0
2 15 51 0
-11 12 -58 0
-44 54 71 0
5 -44 48 0
55 -58 64 0
-10 -38 -58 0
-17 -27 -38 0
2 10 -46 0
33 -58 64 0
-9 -24 -71 0
18 -58 -75 0
-9 -50 70 0
10 -39 55 0
-5 -17 25 0
-13 59 71 0
29 -68 73 0
4 22 -57 0
14 30 -32 0
12 -30 44 0
-35 48 72 0
-12 17 -41 0
-16 -41 66 0
11 -19 -74 0
-11 51 75 0
12 -63 66 0
-11 34 -46 0
-4 9 -63 0
-22 35 -63 0
5 -7 13 0
-3 -41 62 0
-8 64 -72 0
-10 16 26 0
-20 45 57 0
-4 -30 -55 0
-2 58 -63 0
-22 -27 65 0
38 -57 73 0
1 -14 17 0
-25 -66 -67 0
-2 -10 -59 0
-3 7 64 0
23 28 65 0
9 12 19 0
-3 23 -31 0
-27 -62 -63 0
10 -37 43 0
-32 63 67 0
19 22 -41 0
3 -17 45 0
16 18 74 0
22 -50 65 0
38 44 -69 0
-12 -38 60 0
9 -34 -62 0
23 -36 -66 0
23 -31 -48 0
8 21 -30 0
-19 -52 -57 0
7 -20 25 0
18 -23 73 0
28 65 -68 0
8 -32 -40 0
-10 -43 -69 0
27 29 -75 0
24 -42 -48 0
-3 6 23 0
28 58 60 0
-13 20 -72 0
-16 39 -46 0
-36 61 -71 0
17 -22 25 0
13 19 72 0
2 4 -52 0
25 32 67 0
20 61 74 0
-20 23 46 0
-15 -17 38 0
10 14 39 0
35 -41 57 0

