c Generated by rand.py 75 375 3 212228
c Generator source: https://github.com/aaw/sat/blob/master/gen/rand.py
p cnf 75 375
-2 -24 -57 0
-11 -17 19 0
26 -65 66 0
-10 13 49 0
1 11 32 0
-31 47 -73 0
39 43 54 0
-26 -39 65 0
-15 -56 -70 0
-16 27 50 0
37 -44 -51 0
13 -42 -64 0
-9 37 44 0
-49 52 -57 0
31 -34 -69 0
40 -46 57 0
-15 -54 74 0
1 -19 -33 0
13 41 70 0
16 19 -25 0
2 -15 59 0
41 -57 -69 0
-5 -22 67 0
54 64 67 0
3 21 37 0
24 55 -68 0
28 -41 -68 0
13 23 51 0
38 -51 70 0
4 -10 26 0
25 52 62 0
22 -34 -41 0
34 54 -67 0
-30 -33 43 0
-15 -25 65 0
18 36 -42 0
6 -11 64 0
-22 39 -70 0
-2 -16 70 0
-13 -34 -67 0
-35 40 46 0
-29 -64 -73 0
29 44 -74 0
-14 15 51 0
1 -23 -66 0
30 -47 -66 0
-26 27 -67 0
-27 -29 -41 0
-30 -40 -74 0
19 -44 68 0
31 42 68 0
10 -12 -41 0
-4 -13 66 0
4 -22 -25 0
31 -49 64 0
-37 -61 69 0
-7 16 -75 0
-4 27 -66 0
43 56 65 0
-8 37 -60 0
31 41 -45 0
21 23 35 0
35 37 -51 0
-7 -36 -60 0
-30 -43 72 0
32 -35 54 0
27 -39 -68 0
-36 -42 -53 0
-10 56 60 0
-14 -67 -69 0
-57 -59 60 0
22 51 74 0
3 38 75 0
26 -31 -50 0
7 -57 66 0
-28 42 -45 0
-5 35 51 0
-26 -46 -62 0
5 -38 63 0
-7 -63 67 0
10 15 -34 0
2 5 41 0
5 45 -60 0
-52 57 73 0
-18 -19 -64 0
9 -32 41 0
-9 -65 -69 0
58 60 68 0
-9 46 -71 0
9 -23 54 0
-2 26 -29 0
31 -63 73 0
14 54 61 0
-2 37 -39 0
36 -38 -57 0
3 21 25 0
19 -20 47 0
-25 27 -66 0
1 -54 56 0
-21 40 55 0
27 -72 -74 0
-10 -67 71 0
20 51 -54 0
-8 -16 47 0
-18 21 -73 0
3 -33 62 0
10 -21 -55 0
-8 36 -53 0
-19 -20 58 0
-11 -18 25 0
-29 30 74 0
48 64 66 0
10 -31 -38 0
-24 38 54 0
37 -48 53 0
42 -47 -56 0
7 62 67 0
17 -43 53 0
-2 20 -33 0
-47 -56 -57 0
45 51 56 0
34 -43 73 0
-12 19 -26 0
10 -52 -64 0
-8 40 -44 0
23 26 68 0
-29 59 -69 0
-45 54 63 0
-18 64 66 0
-20 39 75 0
13 -59 63 0
-1 -47 -70 0
23 -31 -53 0
21 22 -32 0
1 18 50 0
-47 -48 -57 0
41 62 65 0
-3 19 -38 0
7 34 37 0
-41 61 -70 0
31 41 -51 0
-6 -33 -52 0
5 -56 -59 0
12 56 -68 0
13 -46 63 0
9 -31 -40 0
-5 -62 74 0
-7 -57 65 0
-9 51 56 0
5 -28 37 0
15 48 49 0
-37 59 74 0
46 -49 65 0
33 54 -71 0
48 -55 -64 0
29 47 63 0
47 -63 75 0
-15 -66 -71 0
-18 51 74 0
-8 20 26 0
-11 47 69 0
-24 38 68 0
-32 43 71 0
-28 36 -56 0
-19 21 -26 0
25 -29 -37 0
3 54 57 0
-2 -9 17 0
-11 -65 68 0
1 -48 55 0
5 30 -61 0
5 -54 66 0
30 43 -56 0
23 -43 -72 0
-28 34 71 0
10 -34 -55 0
-8 -21 53 0
11 33 34 0
-20 25 -64 0
8 53 62 0
-11 -53 -63 0
29 31 60 0
28 43 -70 0
23 -29 58 0
-16 51 -52 0
-4 -17 -74 0
-36 -49 -54 0
-29 -33 37 0
-21 -22 -49 0
15 -52 -70 0
1 24 -34 0
-6 18 -57 0
-54 68 72 0
-7 -10 -22 0
-25 -41 -52 0
-7 -25 -31 0
6 20 -47 0
7 47 -59 0
42 -52 73 0
-19 -73 75 0
-35 41 -64 0
-9 -20 36 0
11 -23 -61 0
-40 45 73 0
4 -35 50 0
31 43 65 0
32 -67 71 0
4 -10 -36 0
-21 34 60 0
57 69 -70 0
-4 -37 41 0
-16 58 -73 0
-2 -14 42 0
-7 -13 71 0
31 -47 -52 0
-43 50 -52 0
17 39 -42 0
7 -20 -63 0
-22 44 67 0
8 -13 46 0
22 -42 60 0
-3 37 73 0
5 42 -68 0
-21 -29 -65 0
-19 47 64 0
11 21 -68 0
-10 -31 -54 0
-10 -26 -39 0
-16 32 70 0
30 -36 -56 0
26 -35 75 0
-26 -35 50 0
-23 -28 41 0
-26 -38 67 0
-7 -12 59 0
2 -12 -38 0
19 46 47 0
-9 13 -21 0
-15 -22 43 0
-27 -44 55 0
-38 46 57 0
39 57 60 0
-20 -35 -71 0
27 -45 -75 0
-22 51 -69 0
22 -52 73 0
-33 -46 49 0
4 29 74 0
19 -42 -43 0
-17 54 69 0
-7 9 69 0
37 50 58 0
16 51 -68 0
-48 -60 66 0
-30 68 -72 0
-22 -45 -55 0
-4 5 72 0
35 46 74 0
15 19 -31 0
-11 -41 -53 0
-3 39 -66 0
2 -18 -66 0
-7 15 -29 0
11 -17 62 0
3 -58 -64 0
25 -36 -37 0
31 -50 58 0
1 8 -52 0
-34 48 -58 0
-36 -64 71 0
20 -29 57 0
17 21 -32 0
4 32 -43 0
30 53 75 0
-22 27 -38 0
-58 -62 -66 0
-18 -64 71 0
-7 22 73 0
48 -57 73 0
41 60 -65 0
39 -48 72 0
5 7 46 0
-25 -40 68 0
-9 -43 52 0
-28 54 -66 0
2 -4 -10 0
-4 -44 50 0
-10 25 -32 0
-2 47 72 0
-3 -16 -54 0
-37 -47 53 0
-17 -63 -68 0
-27 56 -57 0
-42 -50 -69 0
7 -54 63 0
2 -41 43 0
-18 -37 53 0
36 -68 71 0
-44 64 -66 0
-47 51 -52 0
31 -47 60 0
27 -47 -58 0
62 -67 -71 0
17 -23 69 0
24 -27 66 0
4 32 -59 0
14 -54 -58 0
-8 35 45 0
-38 51 67 0
8 -10 13 0
-29 -40 59 0
29 31 -73 0
3 -5 -30 0
-23 45 71 0
32 -46 -57 0
33 49 56 0
27 28 72 0
16 32 -68 0
2 -50 -61 0
37 -59 -75 0
6 16 43 0
4 -32 -33 0
7 18 38 0
28 47 50 0
3 52 -70 0
-25 41 59 0
-6 38 -74 0
-16 48 71 0
-16 -36 -43 0
1 -37 -63 0
-9 10 51 0
-38 54 -68 0
9 19 -72 0
-34 -41 -54 0
9 65 -68 0
-39 68 73 0
13 -18 54 0
-21 38 -52 0
31 -39 63 0
-6 23 52 0
3 -45 -50 0
6 21 -38 0
-11 15 43 0
-21 49 54 0
-25 36 39 0
1 55 -57 0
-44 -72 74 0
16 -21 60 0
21 -25 65 0
-17 27 75 0
-9 -56 65 0
34 44 -48 0
-12 -35 -53 0
-23 39 65 0
-43 46 -51 0
18 21 65 0
23 -32 49 0
32 -39 49 0
1 14 -58 0
-26 27 73 0
10 17 68 0
-25 26 -51 0
11 -34 -55 0
30 38 -65 0
31 -48 51 0
-1 -23 62 0
-6 -9 -45 0
-1 12 20 0
-1 6 -7 0
35 -44 -71 0
-27 31 54 0
-19 29 -62 0
-8 -10 -44 0
16 -40 65 0
27 37 54 0

