c Generated by rand.py 100 500 3 939519
c Generator source: https://github.com/aaw/sat/blob/master/gen/rand.py
p cnf 100 500
40 72 -83 0
-13 -14 -51 0
41 -65 83 0
16 -55 100 0
-16 34 -60 0
1 -9 -46 0
-18 -22 95 0
-30 -34 -74 0
32 -56 -80 0
18 -31 -36 0
-15 72 77 0
21 42 80 0
-36 -71 -76 0
30 84 -95 0
90 -92 -94 0
16 96 -98 0
-10 -32 69 0
58 67 -92 0
-19 -89 100 0
25 76 100 0
59 74 -82 0
27 61 -96 0
7 -43 66 0
-21 -49 56 0
24 -64 100 0
-8 47 -58 0
-18 -42 91 0
-2 14 -72 0
-22 -56 -83 0
10 -25 -45 0
10 34 35 0
-98 -99 -100 0
1 -42 48 0
32 -51 78 0
17 50 -89 0
23 -28 -54 0
44 58 74 0
-4 10 -89 0
-60 71 -80 0
-37 -46 -90 0
1 -21 97 0
-26 37 -77 0
-13 57 97 0
-30 -63 -91 0
-27 -58 95 0
18 76 -89 0
-27 81 -100 0
-42 45 77 0
-31 -88 89 0
-40 -60 72 0
-77 84 -87 0
28 74 -86 0
-37 62 80 0
-5 -41 97 0
-10 -70 -93 0
-41 -44 97 0
-14 79 -96 0
-32 -42 97 0
24 47 60 0
-48 55 -58 0
14 -63 87 0
-26 83 100 0
-26 36 91 0
42 63 -87 0
-64 -89 -91 0
53 81 -99 0
21 41 -85 0
-54 -61 91 0
29 58 96 0
3 -47 -50 0
39 65 79 0
6 -31 -71 0
35 48 -88 0
-35 -47 -95 0
14 17 -71 0
12 41 -81 0
31 56 -94 0
1 38 57 0
12 46 72 0
-12 -44 93 0
57 65 92 0
-38 39 99 0
7 -45 -72 0
2 50 -62 0
-7 -33 -57 0
20 -70 86 0
5 -50 66 0
11 58 77 0
-21 60 76 0
10 21 -96 0
-87 -88 99 0
-8 26 -49 0
1 -12 29 0
69 73 99 0
8 -49 96 0
18 36 89 0
-62 -64 69 0
36 -42 -81 0
-1 -75 76 0
80 -82 92 0
12 33 -75 0
4 -75 99 0
35 -85 -90 0
4 14 27 0
18 -22 52 0
-14 -76 -91 0
-9 35 97 0
49 53 91 0
1 -54 95 0
-12 -20 -85 0
67 78 79 0
-51 -76 -94 0
41 74 -98 0
-17 34 57 0
25 -30 76 0
-7 33 94 0
1 -48 88 0
16 -44 57 0
-2 -48 78 0
-17 -72 -94 0
33 62 -83 0
-54 82 -94 0
35 45 -61 0
45 65 92 0
-4 -89 97 0
-18 -23 55 0
-9 -26 -92 0
-38 -52 -83 0
-13 -60 -61 0
-10 60 100 0
4 -5 34 0
1 -73 -75 0
-43 -88 92 0
26 -38 -51 0
-3 -46 65 0
-58 -59 66 0
52 -77 81 0
-45 -78 -96 0
-49 53 94 0
44 60 -75 0
50 68 91 0
-4 13 -31 0
52 -75 -82 0
19 26 -35 0
51 80 -98 0
69 85 -94 0
1 -8 -61 0
-12 -47 -56 0
23 -69 -99 0
-29 68 -84 0
-21 -53 -58 0
-26 65 -94 0
39 -45 -55 0
-80 -82 -99 0
17 -28 -31 0
28 50 53 0
7 40 -92 0
-36 71 -94 0
20 84 97 0
4 -5 -29 0
23 -24 -60 0
-63 64 68 0
-8 -12 40 0
-1 -42 90 0
-5 27 37 0
-26 38 -52 0
-25 -74 -93 0
-34 -51 -54 0
-20 -37 46 0
-21 44 -72 0
-17 -78 91 0
58 85 -89 0
-38 -43 57 0
-2 -69 -89 0
-11 -33 45 0
-36 54 64 0
-77 83 100 0
-53 -79 83 0
-14 87 99 0
7 -64 -94 0
13 36 -59 0
-27 30 60 0
-17 44 -59 0
-2 5 -15 0
26 54 -90 0
7 38 88 0
-24 33 38 0
-4 -59 91 0
50 51 62 0
-20 -91 92 0
-7 -34 58 0
14 57 87 0
-5 -31 51 0
33 42 -83 0
35 60 62 0
21 37 96 0
-16 29 -32 0
14 -89 -100 0
-58 -84 88 0
28 -30 -55 0
-8 -32 -92 0
33 -41 -69 0
-33 -69 94 0
17 -26 -92 0
7 66 -100 0
3 -64 66 0
-20 78 -90 0
17 34 -76 0
-24 -45 66 0
-18 -94 95 0
9 -68 -72 0
-21 -62 72 0
-28 -56 95 0
25 73 -77 0
6 -67 71 0
-54 -76 96 0
33 -74 -75 0
26 -57 -83 0
-25 -56 -85 0
-19 32 75 0
11 45 64 0
-13 15 98 0
13 82 94 0
-26 61 -68 0
5 33 72 0
-25 -50 84 0
-1 -7 12 0
-5 -29 91 0
-7 45 70 0
-24 70 75 0
-22 27 -74 0
-7 -33 40 0
1 14 56 0
12 34 -100 0
13 61 92 0
-11 -12 -47 0
10 -58 62 0
20 71 -79 0
13 21 59 0
44 63 -100 0
-56 -67 76 0
12 24 -58 0
-28 43 77 0
7 -89 98 0
-80 86 95 0
34 -47 94 0
4 18 58 0
-16 -66 -94 0
22 -60 79 0
11 -52 -92 0
51 67 80 0
-49 -59 78 0
-8 24 -44 0
38 49 -100 0
-37 -77 94 0
10 80 99 0
-21 -57 -96 0
-8 29 -63 0
-28 -48 82 0
10 -34 -45 0
-52 82 -89 0
-5 -62 -81 0
14 40 -47 0
-16 58 88 0
21 25 32 0
42 52 -58 0
25 32 -96 0
-8 -19 75 0
-12 18 74 0
-39 -69 73 0
47 -66 85 0
-14 47 -51 0
21 35 51 0
12 -15 58 0
27 -75 -96 0
25 41 -43 0
26 -53 95 0
2 66 -91 0
11 -57 -70 0
20 -79 97 0
-5 -32 45 0
6 8 -81 0
53 -62 -100 0
40 50 82 0
-10 52 92 0
38 -51 70 0
-1 13 -38 0
10 -20 -72 0
4 62 -82 0
17 22 -28 0
28 -47 -60 0
2 93 99 0
-32 66 75 0
-50 94 97 0
28 49 52 0
-8 19 79 0
-23 36 -77 0
11 21 84 0
6 38 63 0
2 -19 -81 0
-40 -83 -97 0
-21 23 72 0
-2 68 77 0
-20 26 98 0
12 88 -92 0
11 -12 -83 0
38 -39 67 0
-30 38 44 0
22 45 -77 0
-30 -38 -99 0
-27 -53 77 0
-40 64 -93 0
54 66 96 0
29 31 -45 0
-28 49 62 0
-17 -40 -83 0
-24 67 89 0
-34 -70 75 0
-43 88 -97 0
-34 73 97 0
-34 -68 94 0
3 44 60 0
44 -49 -88 0
51 54 -58 0
1 10 36 0
26 -41 -56 0
67 -77 88 0
3 15 -45 0
67 83 -92 0
24 -32 33 0
-36 43 -80 0
30 -83 -89 0
-14 75 89 0
-4 35 -74 0
-17 -19 -71 0
-10 -34 -51 0
-35 45 54 0
30 35 -47 0
-9 10 -52 0
-15 -45 54 0
-14 32 68 0
-9 -51 -85 0
2 -17 -47 0
33 49 91 0
-22 27 46 0
66 -68 -81 0
-5 -55 56 0
-11 61 -88 0
-29 -58 93 0
21 22 -89 0
-51 -59 -63 0
49 58 62 0
2 30 77 0
35 38 -67 0
-72 -75 86 0
45 -47 62 0
6 59 -80 0
31 74 79 0
-12 -27 -87 0
-50 -78 -88 0
-29 42 -50 0
-13 -29 -97 0
43 66 75 0
3 -31 -74 0
-9 -26 32 0
17 -73 81 0
24 86 99 0
28 -46 77 0
38 -90 94 0
30 94 -99 0
11 -57 79 0
9 12 -43 0
-25 -37 -89 0
6 -14 42 0
10 -15 73 0
-50 -85 90 0
-1 -63 83 0
38 -74 76 0
40 -97 98 0
43 50 -70 0
26 65 89 0
-16 80 94 0
47 -48 -70 0
-8 31 42 0
30 -63 -87 0
-16 -33 40 0
3 -75 -95 0
-40 -73 90 0
-48 57 95 0
-8 -52 -100 0
-18 -21 -44 0
23 -71 84 0
17 -63 65 0
19 -39 40 0
4 19 67 0
-15 28 43 0
7 9 -56 0
-1 15 20 0
5 39 43 0
6 -36 41 0
31 58 -80 0
31 63 -80 0
68 -76 -79 0
-24 38 -39 0
-38 56 60 0
-22 -75 -81 0
10 17 -29 0
-12 44 53 0
-81 -82 88 0
57 84 -98 0
-58 -76 -93 0
-92 93 99 0
-26 -28 -98 0
4 13 59 0
-21 25 -65 0
2 -7 -21 0
-19 49 -89 0
-38 -83 -92 0
6 -20 -24 0
-66 98 100 0
43 -64 71 0
7 10 48 0
-9 23 -36 0
23 -34 81 0
5 -71 82 0
9 28 -36 0
-7 31 -43 0
-12 -31 84 0
9 31 -79 0
18 -35 -38 0
-12 39 49 0
59 68 100 0
-16 -21 89 0
2 -59 -69 0
37 44 89 0
4 -30 92 0
-3 -7 60 0
-41 58 -70 0
24 31 73 0
24 -47 -100 0
34 -64 -99 0
16 -20 32 0
5 16 49 0
-66 -77 88 0
-20 54 63 0
-72 75 -88 0
6 72 -80 0
4 -71 -100 0
5 -30 -35 0
-36 -62 76 0
-7 -59 -92 0
12 -44 93 0
-68 -71 -86 0
-2 49 -62 0
-34 74 -79 0
-32 -88 99 0
31 -46 53 0
-68 70 -89 0
29 -48 90 0
18 -48 96 0
-20 -22 66 0
18 75 -90 0
-54 -64 86 0
12 -16 78 0
-24 96 -98 0
9 48 -89 0
-19 -33 49 0
-4 -15 -24 0
12 -28 -31 0
-15 21 58 0
23 53 -74 0
65 71 -90 0
62 74 82 0
-14 18 76 0
-21 -23 33 0
-4 22 74 0
50 -87 -90 0
25 50 -88 0
35 54 59 0
-20 31 -68 0
43 -55 -75 0
-36 -73 -94 0
-2 -40 65 0
-74 84 -99 0
21 -22 -61 0
-58 -72 -80 0
-1 -56 -87 0
-13 -39 97 0
32 94 99 0
-41 -74 -93 0
19 71 86 0
-6 26 -73 0
34 -46 -57 0
-24 26 54 0
54 -61 -78 0
69 -95 97 0
26 -53 -64 0
-19 78 95 0
13 -14 -70 0
26 -47 -48 0

