c Generated by rand.py 50 250 3 965499
c Generator source: https://github.com/aaw/sat/blob/master/gen/rand.py
p cnf 50 250
17 -49 50 0
-7 -22 50 0
-25 -37 41 0
-4 6 -29 0
-8 18 -20 0
29 32 33 0
-8 20 34 0
2 22 -41 0
-22 -30 -36 0
-10 -21 -49 0
1 -15 37 0
-7 -18 35 0
-12 -17 -28 0
-9 37 -50 0
15 -18 49 0
7 24 41 0
39 40 -41 0
5 -16 -31 0
-5 13 26 0
3 -34 48 0
-3 27 -31 0
6 -7 22 0
-4 -13 -41 0
-30 -43 -44 0
17 -19 31 0
33 -36 -44 0
29 -36 -40 0
-17 21 23 0
8 -18 -44 0
9 20 33 0
22 -32 48 0
-9 -19 -46 0
-8 -30 38 0
-1 -2 19 0
-14 34 -46 0
23 26 40 0
10 -20 47 0
4 -20 50 0
25 40 41 0
-18 20 -46 0
5 -43 47 0
4 14 -24 0
21 37 -47 0
7 8 42 0
31 -34 47 0
2 -3 33 0
12 -20 31 0
20 -30 -45 0
23 -32 -47 0
14 -46 -48 0
-19 38 -42 0
-14 -30 45 0
-2 7 -11 0
10 -13 35 0
2 7 42 0
-3 18 -46 0
-26 41 -47 0
-3 -12 42 0
-14 -18 -41 0
-6 21 49 0
-8 19 50 0
-22 -25 -50 0
5 14 -39 0
-20 36 -46 0
-32 -40 -49 0
8 13 -26 0
-3 31 -45 0
-1 -22 31 0
4 42 -45 0
-23 33 48 0
-20 21 -46 0
-15 22 -34 0
5 21 24 0
19 -41 -46 0
-1 3 6 0
-24 29 36 0
16 -35 49 0
2 -44 48 0
5 20 26 0
5 44 48 0
-17 -31 38 0
-6 13 32 0
-1 8 -27 0
4 -5 -35 0
11 14 -17 0
-18 -27 32 0
-8 18 -38 0
-14 28 36 0
-27 -38 49 0
-20 29 -46 0
28 -43 -46 0
16 20 -29 0
15 21 -25 0
-2 -6 -46 0
6 -26 35 0
14 -16 33 0
1 -14 -46 0
14 21 -28 0
-8 -17 33 0
-25 -35 50 0
17 24 -39 0
-39 42 45 0
4 44 49 0
-8 27 -49 0
15 32 36 0
-5 14 -48 0
-1 -38 -45 0
-15 -16 -34 0
-5 -37 -50 0
1 46 -47 0
32 42 -45 0
-1 31 40 0
13 -17 48 0
14 25 46 0
8 -28 50 0
-11 -40 -48 0
-6 15 -50 0
-9 -10 -23 0
2 -22 45 0
31 -43 47 0
6 -10 -22 0
9 24 43 0
-7 -25 46 0
-8 17 40 0
12 23 44 0
4 21 -48 0
29 31 -45 0
3 15 35 0
23 36 50 0
-4 13 25 0
9 24 -40 0
6 45 48 0
-6 -17 -45 0
-2 37 -38 0
8 23 -27 0
9 -38 45 0
-1 -37 45 0
6 -23 41 0
-3 16 46 0
-7 14 -20 0
12 -32 37 0
3 -6 14 0
15 -27 47 0
-5 -20 -44 0
-1 5 15 0
28 42 50 0
-2 -21 -34 0
12 -26 36 0
-43 44 48 0
-1 -28 34 0
-27 -40 -41 0
8 -14 32 0
-3 7 41 0
8 19 -26 0
11 20 44 0
22 -29 34 0
4 -9 -48 0
7 -8 -14 0
-7 22 33 0
15 -34 50 0
-2 -4 -6 0
-20 -30 -32 0
-8 22 26 0
-2 -3 -30 0
2 -39 49 0
-9 -38 46 0
-21 26 -31 0
-14 -45 -49 0
-19 34 47 0
32 -37 -47 0
16 17 -20 0
-14 -19 -27 0
5 7 -32 0
17 -27 39 0
-8 -12 -23 0
11 -28 -42 0
-5 -17 26 0
-8 10 -13 0
-28 -29 -50 0
12 13 -32 0
-13 28 40 0
-2 22 -45 0
8 -12 -14 0
2 -31 44 0
13 -15 22 0
14 21 49 0
8 -22 -37 0
-12 14 21 0
-6 -37 43 0
6 14 -18 0
-27 34 39 0
-15 24 -35 0
15 -22 37 0
8 -12 34 0
-7 40 -48 0
-26 -30 43 0
-13 -21 -43 0
-7 10 27 0
-21 -31 46 0
-12 -29 -38 0
-8 -22 -44 0
-6 -10 -39 0
-5 -28 -50 0
21 -29 44 0
-7 11 -40 0
-14 15 -42 0
-5 -23 31 0
-9 -43 -45 0
-13 -36 -50 0
22 -23 -48 0
-2 29 -38 0
-23 27 32 0
-21 36 40 0
-21 -30 31 0
7 -17 -39 0
-10 -34 36 0
-18 -31 -32 0
-9 22 39 0
1 17 34 0
30 -41 -48 0
26 -31 35 0
3 4 -9 0
-30 -44 -50 0
3 11 -38 0
-8 -31 45 0
-5 -31 50 0
-25 34 47 0
10 20 -44 0
-17 -23 -27 0
-5 -26 -36 0
11 -21 35 0
-8 -14 37 0
-1 17 -18 0
-3 -5 20 0
-9 20 44 0
29 32 -37 0
-8 -18 47 0
9 -17 -22 0
-20 -25 45 0
-14 35 -49 0
-3 -21 22 0
13 -31 42 0
-14 25 44 0
-9 -20 -49 0
-40 41 47 0
18 -25 -50 0
22 -27 32 0
-3 6 -50 0
7 -13 40 0
-10 -27 41 0

