c Generated by rand.py 75 375 3 980561
c Generator source: https://github.com/aaw/sat/blob/master/gen/rand.py
p cnf 75 375
-18 -45 55 0
-8 67 -71 0
22 -66 69 0
-20 58 67 0
-17 53 -62 0
4 -5 -26 0
19 42 -62 0
7 -24 61 0
-25 -35 -65 0
14 35 -40 0
37 -44 -73 0
-49 54 -73 0
5 -49 -69 0
5 -9 32 0
3 50 63 0
36 -61 -75 0
-48 -52 -64 0
5 -48 -62 0
8 -11 46 0
3 -13 -26 0
6 -40 -47 0
-3 -22 59 0
-14 59 69 0
45 -53 70 0
-34 -42 51 0
53 -61 -69 0
-28 -38 -73 0
26 59 -74 0
-22 31 41 0
15 45 -54 0
-14 40 -66 0
18 19 73 0
3 -11 -17 0
-5 39 -70 0
-33 -45 -50 0
-5 32 -51 0
7 -23 -62 0
-25 26 34 0
57 -66 -70 0
-19 -28 57 0
2 -5 49 0
5 -42 -44 0
-15 33 -36 0
-30 34 -44 0
-17 -21 -46 0
17 60 68 0
-9 11 35 0
13 -14 -57 0
-29 48 -51 0
-14 -33 -39 0
21 -32 -50 0
28 35 -51 0
-28 39 -45 0
-24 26 75 0
8 -39 -50 0
16 28 -58 0
4 -53 -63 0
27 -28 55 0
-31 -57 66 0
-6 25 42 0
13 21 -30 0
12 30 61 0
-1 40 -64 0
25 36 -74 0
10 18 -42 0
-4 51 69 0
-6 57 72 0
-42 53 59 0
28 -59 73 0
-7 -8 61 0
-2 -8 -12 0
-14 30 43 0
3 -17 -65 0
4 21 -28 0
-10 18 -50 0
-16 53 -58 0
14 -35 -61 0
-31 33 -66 0
-34 58 -71 0
5 18 -51 0
14 47 -50 0
21 -59 -67 0
-41 -59 -65 0
9 -14 37 0
-2 12 -17 0
11 -36 -47 0
29 -56 -74 0
-38 -45 70 0
-31 39 49 0
-30 -42 -72 0
3 62 65 0
46 -47 75 0
-23 37 -73 0
-12 54 70 0
6 29 -30 0
-36 -43 -67 0
-14 -24 69 0
38 45 59 0
4 -22 -47 0
46 -52 -64 0
23 -48 -68 0
-6 -25 -36 0
29 40 51 0
6 28 -33 0
23 32 -51 0
-21 33 63 0
-31 -39 50 0
57 -67 73 0
-28 30 63 0
-2 -52 -55 0
-23 -25 -35 0
-1 -20 32 0
20 31 65 0
9 -40 -48 0
-1 35 48 0
11 28 47 0
-24 49 -64 0
14 22 42 0
-43 -44 75 0
10 33 -46 0
46 -60 65 0
7 32 59 0
-50 -56 -61 0
12 20 25 0
19 65 73 0
2 -47 -65 0
7 -60 68 0
-16 -30 72 0
33 69 70 0
-3 29 38 0
-23 -57 -62 0
-45 71 74 0
-17 32 72 0
18 -25 43 0
-8 -36 38 0
5 36 53 0
-6 -24 -55 0
6 61 70 0
2 42 71 0
23 24 25 0
5 -20 -42 0
-41 -42 -48 0
-39 -46 66 0
-23 42 46 0
-29 -34 40 0
-4 10 -17 0
-7 15 43 0
-5 47 -63 0
-24 -42 64 0
-13 -16 27 0
-17 -22 31 0
8 10 -23 0
-33 40 -42 0
-4 -29 -71 0
28 49 66 0
-1 47 -51 0
-7 43 -49 0
20 26 62 0
-7 -42 48 0
7 69 -75 0
-11 -46 69 0
42 -55 -68 0
-3 54 58 0
-2 -43 59 0
-26 29 -74 0
19 23 39 0
-1 22 -70 0
-15 54 57 0
22 36 -72 0
7 -32 -59 0
10 35 -66 0
-11 30 37 0
-42 -73 -75 0
-18 -41 55 0
42 53 -59 0
-11 19 -48 0
-8 -17 34 0
3 18 -26 0
34 -43 -56 0
-2 -11 -23 0
51 73 -74 0
41 -55 -65 0
18 35 -51 0
-14 -22 -30 0
-1 54 73 0
3 47 -69 0
14 -45 68 0
10 -20 -61 0
-6 -32 62 0
6 14 59 0
-25 -54 -62 0
35 -68 75 0
-40 54 57 0
-26 -34 -55 0
-31 -37 -60 0
-12 -20 55 0
11 30 -32 0
10 33 -69 0
-5 42 45 0
-36 45 71 0
-8 -12 62 0
34 -35 -72 0
-33 35 51 0
43 -58 73 0
14 -15 -73 0
-24 41 63 0
-21 -47 63 0
-33 50 -63 0
59 -72 73 0
-7 12 -39 0
3 30 33 0
-6 -23 48 0
11 -46 59 0
-51 -62 -67 0
-23 -58 -68 0
2 40 48 0
-48 70 -74 0
-55 -69 71 0
-32 40 -69 0
24 -41 48 0
40 47 68 0
-30 -44 -74 0
48 52 68 0
3 -22 61 0
42 -48 -63 0
7 41 47 0
-16 35 43 0
19 57 65 0
2 60 -68 0
15 -72 -73 0
10 53 71 0
45 67 -74 0
25 67 69 0
-9 11 23 0
20 -35 38 0
29 52 -56 0
17 27 -34 0
11 -46 -59 0
-6 -11 -62 0
22 31 -32 0
17 -30 -41 0
-9 37 41 0
8 -53 -74 0
-11 39 64 0
-21 -26 -62 0
-18 54 75 0
-24 42 -55 0
2 5 28 0
-9 20 27 0
-25 56 59 0
8 -20 -65 0
15 -56 59 0
16 -29 -45 0
-20 21 71 0
38 -65 -68 0
23 41 -60 0
8 -31 -56 0
-5 -27 58 0
-15 -23 -50 0
4 -12 51 0
-12 -26 41 0
-28 -61 62 0
3 36 62 0
3 21 38 0
1 -23 53 0
-28 -54 69 0
34 40 59 0
-36 37 48 0
-25 35 -75 0
-6 -39 -61 0
7 10 64 0
-7 -39 -55 0
-21 50 52 0
2 -7 69 0
-10 48 -61 0
38 -56 72 0
-22 41 -58 0
-1 29 68 0
-1 7 71 0
-66 -74 -75 0
-34 46 47 0
16 -26 61 0
-14 24 65 0
17 24 -27 0
18 -33 41 0
12 -32 34 0
23 64 -68 0
-17 56 71 0
-59 -60 71 0
-30 -32 -66 0
11 20 -68 0
-4 9 49 0
-25 -30 -51 0
10 -30 59 0
-15 -48 -73 0
30 -53 -59 0
19 -51 -71 0
30 -36 -37 0
-11 -55 61 0
48 56 -67 0
32 42 -57 0
-31 -34 -40 0
21 -45 68 0
14 26 -32 0
-6 -20 -21 0
-28 -50 -51 0
5 -60 64 0
-3 34 46 0
5 50 68 0
50 55 66 0
11 -50 58 0
-18 -49 70 0
-15 30 -58 0
-17 54 -72 0
35 -63 -72 0
-30 39 45 0
16 -40 69 0
11 28 71 0
-15 -44 75 0
-8 41 -48 0
22 -24 -42 0
-16 -36 68 0
-2 -47 -53 0
-20 55 -61 0
36 62 73 0
-10 31 42 0
-16 -30 45 0
8 -18 67 0
-13 19 -24 0
-32 39 -63 0
-48 65 67 0
6 -16 -35 0
-4 -28 -70 0
-44 -70 74 0
10 46 53 0
9 -24 62 0
15 47 60 0
31 36 -40 0
-8 -43 46 0
-24 -32 -48 0
3 -26 -60 0
6 17 -67 0
25 -59 70 0
57 63 -72 0
-4 -18 -68 0
7 53 -54 0
5 -33 -42 0
41 -50 -75 0
6 -21 -38 0
33 -36 -72 0
-2 17 74 0
-9 -58 -75 0
-46 -53 71 0
-6 26 48 0
-36 39 42 0
18 31 -36 0
8 12 -70 0
-26 30 -35 0
28 37 -46 0
-30 -34 47 0
56 60 -71 0
-43 53 -62 0
-2 23 25 0
-38 -43 74 0
-20 59 -61 0
-2 9 34 0
-28 -64 75 0
-27 68 -73 0
-34 -66 72 0
-9 43 -75 0
-2 10 14 0
47 -67 70 0
19 -52 58 0
2 -67 70 0
17 -24 -58 0

