c Generated by rand.py 50 250 3 433192
c Generator source: https://github.com/aaw/sat/blob/master/gen/rand.py
p cnf 50 250
-12 25 -39 0
-22 -26 48 0
3 -31 -47 0
6 24 33 0
13 -16 -33 0
-5 -15 -17 0
6 21 -42 0
33 38 41 0
1 -25 -36 0
1 -17 34 0
9 15 -43 0
2 -16 -29 0
-11 19 -27 0
2 -30 -34 0
1 10 -37 0
13 -14 15 0
14 39 41 0
15 -22 40 0
6 16 -42 0
-6 7 -34 0
4 16 42 0
-22 -26 -36 0
-7 -11 -44 0
28 32 50 0
22 32 40 0
-4 11 -20 0
-9 -14 49 0
-12 19 -47 0
4 -6 -30 0
19 29 -43 0
10 -24 -27 0
9 15 -36 0
24 -41 -47 0
-20 36 39 0
16 30 36 0
-18 23 29 0
-26 -40 -50 0
-5 18 29 0
10 22 32 0
-1 18 -43 0
-8 -32 -49 0
-18 20 -34 0
2 -6 49 0
2 -14 25 0
-6 29 32 0
27 31 42 0
-21 23 -29 0
14 -19 30 0
-11 -18 30 0
5 -13 -24 0
8 -27 45 0
-12 13 45 0
-1 14 36 0
15 -19 -28 0
5 -36 46 0
9 10 -11 0
-5 27 -48 0
2 -16 44 0
11 -40 44 0
-4 12 -23 0
9 -10 44 0
21 28 -36 0
-17 -18 -49 0
5 10 -16 0
-10 -40 41 0
-18 20 -44 0
7 -21 -48 0
20 -23 -31 0
28 42 48 0
-17 35 -42 0
4 -47 48 0
-4 14 43 0
32 43 44 0
11 -39 -44 0
-1 11 -40 0
4 -19 -30 0
-16 36 40 0
-2 -14 20 0
-6 -34 46 0
-6 -13 -25 0
-17 -21 47 0
-3 4 -31 0
-23 42 48 0
8 -35 -37 0
-25 44 -45 0
-45 -48 50 0
-21 35 -41 0
5 7 19 0
21 32 34 0
15 -18 34 0
-6 -41 47 0
24 -44 -48 0
3 13 -30 0
-10 20 32 0
10 22 -36 0
-15 23 -26 0
16 28 -33 0
-4 -29 -50 0
28 45 50 0
-1 -17 49 0
-13 17 -47 0
14 24 48 0
11 23 49 0
-1 3 15 0
29 -32 39 0
8 11 -18 0
-9 29 -45 0
-11 -13 -44 0
-1 10 -18 0
11 -16 41 0
19 -21 42 0
7 24 27 0
-7 20 24 0
-17 22 44 0
10 18 22 0
-20 27 -29 0
-21 -22 31 0
-16 -21 26 0
22 -26 -33 0
-8 -39 -45 0
7 43 -44 0
-11 -44 -46 0
-39 43 47 0
-10 -15 16 0
20 -32 39 0
-30 32 41 0
5 -34 42 0
8 19 46 0
1 -22 -42 0
-13 -15 41 0
-14 -31 -37 0
5 18 -32 0
5 24 27 0
-14 -15 46 0
-1 27 43 0
10 -12 42 0
22 -39 -49 0
-17 -21 40 0
-16 -17 46 0
2 -13 35 0
22 -30 36 0
6 -28 47 0
-1 -4 49 0
29 -42 -43 0
-8 40 -48 0
31 40 42 0
-32 45 -48 0
-1 -32 -49 0
-5 7 -17 0
-9 -12 20 0
-26 -45 46 0
29 -32 -48 0
13 -34 -48 0
23 -33 -48 0
-10 11 -26 0
-7 19 41 0
22 -28 32 0
-17 20 -50 0
-17 -24 -26 0
2 5 49 0
-3 35 -43 0
19 -30 46 0
-8 26 -29 0
-20 23 50 0
-25 27 48 0
-14 -49 -50 0
-30 -32 -40 0
5 29 35 0
-12 -13 33 0
-12 32 41 0
-25 -36 -45 0
-4 -19 -50 0
21 23 37 0
-17 36 40 0
-12 40 -41 0
1 21 43 0
-13 -24 -29 0
8 20 -24 0
9 17 47 0
7 -26 40 0
17 28 -29 0
-1 5 -46 0
-16 25 -39 0
18 21 40 0
4 -19 -50 0
17 -33 -46 0
24 -48 49 0
28 -29 44 0
8 -17 41 0
-25 -32 33 0
-18 35 43 0
-11 -30 36 0
-23 -24 -39 0
-10 33 -42 0
26 -28 -32 0
1 6 -16 0
9 38 47 0
-11 19 -49 0
-28 -37 -49 0
-33 -37 -45 0
-16 28 38 0
11 18 -41 0
8 20 42 0
6 -44 47 0
29 41 47 0
-33 -48 -49 0
-6 29 39 0
-19 32 39 0
-14 31 -43 0
24 28 29 0
-4 18 39 0
-6 -15 -49 0
-2 14 27 0
-18 -20 30 0
-17 47 -48 0
-15 -22 49 0
-9 -23 32 0
19 -25 50 0
12 17 47 0
-14 -15 -21 0
-12 -30 -39 0
3 46 -49 0
5 43 45 0
-5 -33 -38 0
-11 -28 30 0
5 38 -41 0
-9 -31 -44 0
-10 30 50 0
7 -38 42 0
13 -19 34 0
-13 36 -46 0
-28 -40 49 0
-7 36 49 0
10 -31 44 0
6 -47 50 0
-13 33 -39 0
21 -25 -45 0
5 -38 47 0
-3 38 -46 0
-17 28 -30 0
4 20 38 0
-8 14 41 0
-6 -24 -42 0
4 30 40 0
1 -12 25 0
-24 -25 35 0
18 -22 50 0
10 -17 22 0
12 -37 43 0
26 -31 49 0

