c Generated by rand.py 100 500 3 456826
c Generator source: https://github.com/aaw/sat/blob/master/gen/rand.py
p cnf 100 500
49 56 82 0
12 51 81 0
-45 -57 -96 0
34 -36 -59 0
35 92 -96 0
66 90 -98 0
27 -50 69 0
25 -61 -78 0
-35 59 -75 0
-37 -50 74 0
60 83 100 0
-53 58 89 0
-2 -47 83 0
-31 57 -73 0
-54 69 85 0
-16 -21 80 0
-15 -21 -61 0
-47 93 -94 0
46 84 100 0
-62 -90 93 0
33 -54 58 0
7 -41 -74 0
3 -69 82 0
25 41 -48 0
-33 -55 -95 0
23 74 -77 0
1 -51 53 0
7 -24 -62 0
58 62 74 0
4 -91 99 0
-37 44 65 0
-15 -76 78 0
-33 85 100 0
-12 37 81 0
5 52 69 0
13 62 73 0
-91 -98 100 0
18 33 -53 0
1 6 11 0
13 83 -95 0
15 -40 -92 0
-27 74 -86 0
9 -59 65 0
-29 -50 -82 0
60 66 -89 0
-34 80 100 0
43 -48 -64 0
-7 -34 -41 0
27 -42 69 0
-9 35 61 0
45 -67 -75 0
62 -88 97 0
11 30 -71 0
42 -65 -66 0
-8 20 -82 0
-23 -43 58 0
-43 -74 -100 0
9 -70 -83 0
48 57 -78 0
48 80 99 0
35 -86 97 0
-12 61 78 0
7 50 -97 0
1 -66 -93 0
21 82 97 0
-47 69 -73 0
-17 58 77 0
-8 -39 -82 0
7 -16 42 0
3 -18 -86 0
23 -39 90 0
-12 -18 26 0
-52 53 -63 0
52 94 -95 0
-30 -34 60 0
-29 78 96 0
-23 30 -69 0
-79 82 -90 0
9 27 -82 0
33 34 -52 0
47 -63 -89 0
24 -32 55 0
17 50 59 0
18 -35 -40 0
6 18 -24 0
-1 26 -44 0
-1 22 -41 0
13 49 -91 0
-5 83 86 0
17 -50 68 0
69 -89 93 0
63 -76 -95 0
34 -82 -86 0
15 -70 -99 0
22 -23 68 0
-12 41 88 0
35 46 -60 0
52 85 -90 0
3 -47 77 0
18 34 81 0
-28 75 78 0
-1 19 67 0
-42 50 -51 0
-16 -79 86 0
11 -36 86 0
55 -79 97 0
-34 51 78 0
5 48 86 0
-23 -39 -59 0
52 57 100 0
33 75 95 0
20 55 -79 0
9 53 -94 0
21 59 -62 0
-26 -84 -90 0
-20 77 -86 0
-11 -77 -89 0
32 -39 95 0
1 -2 29 0
-34 56 -94 0
-14 26 63 0
61 -69 96 0
-43 96 98 0
28 -50 -91 0
-56 -69 72 0
-22 -73 99 0
19 40 46 0
-9 -42 -43 0
-14 53 -98 0
-16 18 43 0
-5 27 29 0
-59 -62 79 0
-4 51 76 0
54 -58 71 0
14 23 95 0
-8 -13 20 0
-16 81 -82 0
12 67 78 0
33 61 -66 0
-41 60 92 0
-24 -42 85 0
21 -70 73 0
49 -62 -97 0
4 -35 81 0
29 -74 94 0
10 -65 -71 0
60 84 -85 0
-57 -85 -88 0
10 34 -64 0
-43 -77 99 0
40 44 85 0
-12 -75 90 0
21 -53 -87 0
-27 -61 -83 0
39 54 75 0
23 78 85 0
53 76 -92 0
73 83 -86 0
45 -47 -77 0
-35 -64 93 0
-84 -98 99 0
-39 73 -90 0
44 54 65 0
5 -18 -63 0
54 -81 -83 0
-5 27 -62 0
52 54 96 0
-8 -30 -84 0
-36 78 -91 0
37 -59 75 0
27 38 -66 0
-21 39 84 0
-3 -17 -74 0
15 17 20 0
-31 -44 98 0
22 -46 51 0
-43 80 100 0
-38 -69 -70 0
-29 36 42 0
20 -21 52 0
-44 -65 80 0
28 -43 93 0
-21 37 -58 0
4 -43 -74 0
9 92 -96 0
-18 -64 -98 0
-1 -61 -96 0
8 -70 88 0
62 -72 -84 0
2 -8 -31 0
-34 -67 -82 0
-59 -80 90 0
-5 6 81 0
18 51 -64 0
43 61 -88 0
12 -27 -57 0
-18 -27 -62 0
13 20 -84 0
22 -27 -48 0
-51 61 78 0
-45 54 56 0
-9 42 -64 0
-23 43 -76 0
-14 -77 -78 0
20 -74 82 0
-8 -57 100 0
-11 28 60 0
-9 -28 -38 0
37 -57 96 0
1 -18 60 0
2 -14 -63 0
25 -29 98 0
-24 89 -90 0
20 -41 89 0
-47 -94 -100 0
-42 -47 93 0
38 -49 52 0
6 -24 34 0
-23 58 99 0
-13 -19 74 0
-14 -54 -61 0
18 -27 -28 0
-21 -57 -76 0
2 47 -97 0
28 31 89 0
-48 -50 -66 0
-25 -51 -84 0
31 58 -97 0
59 -74 -96 0
-7 -9 31 0
48 93 -99 0
8 -14 -92 0
-33 -58 -92 0
32 -46 -48 0
-60 87 -93 0
-81 84 87 0
-6 -55 -78 0
-8 -19 86 0
78 92 -94 0
27 -66 -83 0
-35 52 -89 0
-40 62 84 0
-91 -92 99 0
-31 38 -50 0
18 -44 -84 0
20 87 98 0
-12 -18 27 0
11 -19 -38 0
51 -53 -59 0
6 -21 -25 0
-28 30 96 0
18 -26 80 0
-4 17 -20 0
-7 20 -53 0
43 48 -74 0
30 59 91 0
38 -72 85 0
32 57 -65 0
9 60 -93 0
46 47 -57 0
52 -59 83 0
8 -65 93 0
-11 -32 -97 0
-17 39 92 0
66 -86 89 0
-19 -28 99 0
9 58 61 0
52 -69 -79 0
61 67 75 0
-53 54 73 0
5 54 -95 0
-5 31 -74 0
-60 89 92 0
-29 47 78 0
35 49 61 0
18 43 -84 0
20 -56 97 0
13 -22 -46 0
-21 -43 -86 0
-23 -80 -100 0
2 -36 -96 0
16 -19 -47 0
47 59 -97 0
31 -55 76 0
1 -11 -48 0
-27 -86 -93 0
-19 30 89 0
12 -45 71 0
-5 -61 -82 0
-34 -72 74 0
-42 62 -94 0
31 48 -82 0
17 -64 66 0
-47 -51 88 0
-18 66 -96 0
-1 11 87 0
39 77 -91 0
-23 73 85 0
8 -34 -66 0
-2 74 -86 0
1 -45 -60 0
-11 -30 -46 0
-76 87 -97 0
24 -32 -58 0
10 34 52 0
-21 -47 -63 0
45 59 -95 0
-14 -57 -89 0
-56 90 97 0
3 23 -98 0
84 86 -89 0
12 -21 -67 0
6 -13 -86 0
-23 52 -54 0
1 -63 -95 0
50 -51 -93 0
-68 -77 84 0
-6 25 -75 0
17 -35 -75 0
-8 -33 70 0
-66 -91 100 0
-4 27 -50 0
44 -48 -80 0
-11 -47 71 0
21 95 96 0
-8 -74 91 0
53 70 89 0
47 50 -94 0
-26 -41 -51 0
-40 -62 -91 0
-10 -34 -54 0
-34 -71 -93 0
62 -76 96 0
17 -39 40 0
26 -38 -86 0
32 -34 -47 0
29 61 -69 0
-22 83 88 0
-5 -10 -19 0
2 -33 -85 0
8 -96 99 0
6 -62 -72 0
53 63 89 0
24 -29 62 0
11 58 74 0
21 46 98 0
82 -84 99 0
26 -28 -90 0
-16 -45 96 0
-71 -83 -87 0
-1 -83 -94 0
-27 -60 -86 0
-5 -36 -50 0
19 88 -91 0
-12 37 60 0
-44 51 96 0
36 44 -72 0
52 64 -82 0
-34 -49 -83 0
-43 51 67 0
27 51 54 0
-8 -37 -45 0
53 -55 100 0
14 -23 98 0
11 -38 45 0
-23 -36 92 0
-10 -18 -38 0
-8 13 97 0
-17 41 -68 0
-15 -20 -72 0
42 83 85 0
-13 49 -88 0
-3 20 96 0
-11 75 -90 0
-62 63 73 0
-3 18 -66 0
-18 65 97 0
5 -11 -79 0
-1 -54 75 0
-15 17 27 0
15 -29 41 0
13 -41 62 0
-36 -60 99 0
27 36 -79 0
-9 73 -94 0
26 45 -89 0
38 -47 93 0
28 -46 -65 0
18 56 -76 0
36 69 86 0
-2 -46 71 0
-57 87 -95 0
-14 -36 82 0
19 34 -92 0
13 30 52 0
-7 -67 -95 0
-5 -95 -99 0
4 -7 60 0
-38 39 -88 0
-43 -51 74 0
76 83 86 0
73 -83 96 0
-10 63 77 0
18 -40 -88 0
49 -69 -75 0
-35 -53 -93 0
20 23 -67 0
10 -61 80 0
-7 -25 78 0
-50 -62 -71 0
-22 -26 61 0
-12 14 96 0
-23 -40 -94 0
-3 -28 87 0
-14 33 -85 0
26 72 92 0
12 -39 -62 0
-22 61 -65 0
-32 79 86 0
25 70 79 0
51 -60 -86 0
22 39 46 0
52 63 76 0
20 37 -90 0
-9 -39 -84 0
20 -22 -52 0
-29 -48 83 0
-9 -24 -28 0
21 -47 52 0
-2 -5 -54 0
-71 -80 -95 0
38 44 83 0
8 69 -76 0
26 -55 89 0
-28 -70 -84 0
-9 -31 46 0
-45 -62 89 0
15 -25 28 0
-57 66 87 0
-29 30 96 0
-11 87 99 0
36 65 70 0
-5 35 99 0
-8 29 40 0
-33 -68 87 0
-18 -35 54 0
-11 -12 35 0
4 62 -91 0
70 -75 76 0
-29 -31 71 0
-13 76 89 0
-3 -33 -86 0
-12 -44 -49 0
-14 -52 73 0
36 -53 -71 0
15 -57 88 0
81 -84 -86 0
-20 61 66 0
32 51 73 0
3 -25 53 0
27 -69 -78 0
-10 41 -53 0
-15 -40 63 0
23 42 65 0
2 -42 -65 0
16 26 93 0
-53 -69 98 0
8 42 -49 0
42 57 100 0
-1 38 -57 0
3 -6 -51 0
-19 28 95 0
28 -34 88 0
55 69 -70 0
73 -75 -97 0
-39 63 77 0
-68 -84 98 0
-11 -78 99 0
5 -32 -89 0
-13 23 68 0
-50 57 -81 0
43 -56 60 0
-20 -75 -99 0
33 89 -95 0
55 -66 72 0
-37 -83 90 0
28 -66 -97 0
6 -24 92 0
-5 -28 -66 0
-15 60 81 0
44 47 -89 0
-25 63 72 0
2 -61 95 0
-39 65 66 0
-59 -74 75 0
23 67 72 0
64 97 99 0
28 -30 46 0
-45 64 -83 0
22 -78 94 0

