c Generated by rand.py 75 375 3 687777
c Generator source: https://github.com/aaw/sat/blob/master/gen/rand.py
p cnf 75 375
9 -10 21 0
3 -10 -35 0
17 24 51 0
14 56 61 0
15 -19 37 0
7 -20 66 0
-16 48 66 0
-2 -19 72 0
-2 20 45 0
27 33 -44 0
-17 -18 -42 0
15 -37 -47 0
-2 -53 -54 0
-12 40 64 0
-25 26 -70 0
6 -49 -74 0
-7 -53 -75 0
-29 -60 65 0
-51 -55 -68 0
8 -59 -63 0
18 20 -37 0
-2 14 -49 0
-1 15 -44 0
-2 -29 -39 0
16 -66 74 0
10 -31 -54 0
-25 -46 -50 0
23 25 54 0
-7 11 -19 0
-18 -58 -63 0
20 -33 53 0
19 49 -55 0
23 -28 -50 0
-4 -41 67 0
18 71 -75 0
-20 -41 -50 0
-47 -49 50 0
1 57 -68 0
-16 29 62 0
18 -24 36 0
9 -26 39 0
-39 -45 -53 0
-27 -43 -61 0
25 -33 41 0
35 -51 62 0
-5 24 -44 0
17 -22 48 0
16 26 -54 0
-26 42 47 0
26 -39 -65 0
28 49 -62 0
5 -45 50 0
-5 59 -65 0
-20 -27 53 0
-6 -20 -27 0
-13 21 -25 0
1 5 -32 0
46 57 -71 0
16 -27 -44 0
6 -7 -56 0
-34 41 -75 0
18 -52 -68 0
-9 11 41 0
23 -55 -58 0
-20 29 -48 0
-1 40 44 0
-40 -62 -74 0
4 -43 -73 0
-15 38 -73 0
24 -29 -57 0
-5 -18 -47 0
-39 61 68 0
39 51 52 0
-34 53 58 0
3 -5 59 0
-20 -46 54 0
-40 51 -70 0
-8 63 72 0
-9 -41 -65 0
40 57 75 0
-23 43 60 0
-8 62 -68 0
-18 -52 75 0
-1 -41 -66 0
-25 -33 37 0
11 -33 51 0
-23 -44 69 0
-31 -36 -47 0
-17 45 57 0
-1 -43 -58 0
-13 -45 -61 0
-2 -56 -73 0
-33 -51 -54 0
5 63 -74 0
36 -60 72 0
-26 -70 75 0
35 -41 -49 0
-10 27 -33 0
21 30 65 0
38 -45 46 0
23 24 -70 0
-24 -34 -69 0
-33 45 -47 0
-24 -67 -69 0
11 -59 -69 0
23 -31 44 0
5 64 -73 0
11 -36 71 0
-47 59 65 0
-1 20 -63 0
11 -58 -69 0
-47 -59 72 0
-16 -19 48 0
-21 -22 -39 0
-8 16 32 0
-4 -49 75 0
-6 -15 -21 0
15 -26 43 0
-39 42 -46 0
23 69 73 0
18 -23 -43 0
-53 60 -74 0
-20 -46 50 0
2 21 -28 0
-5 -51 57 0
-33 -50 53 0
-15 26 37 0
-16 31 -42 0
-17 -55 -66 0
-6 25 -39 0
-21 55 62 0
5 16 -27 0
19 -37 75 0
-27 40 -43 0
39 40 -74 0
26 54 72 0
13 -60 73 0
-20 -31 -37 0
-44 -62 -65 0
5 26 -65 0
8 -33 70 0
5 25 54 0
47 -62 70 0
-40 -58 -61 0
-41 -62 75 0
3 11 69 0
-6 -47 -67 0
6 14 -18 0
4 -10 -47 0
-18 24 53 0
10 17 52 0
-23 71 -72 0
29 -37 -58 0
-4 29 69 0
-5 -32 50 0
-2 -21 -62 0
46 48 -68 0
19 58 -63 0
6 -33 70 0
-9 -21 50 0
14 -19 -42 0
8 66 73 0
-26 45 70 0
23 34 -40 0
-35 -51 -72 0
-6 52 -73 0
-44 62 -72 0
-2 -65 69 0
22 -40 44 0
-55 -57 58 0
29 -58 70 0
-5 -11 -27 0
20 21 37 0
-5 7 55 0
-10 54 -60 0
46 66 -75 0
-9 20 34 0
-22 -71 -72 0
-9 26 61 0
2 9 -59 0
-44 64 70 0
34 69 72 0
-7 20 68 0
-4 40 -67 0
-22 -50 75 0
14 24 60 0
-11 -36 67 0
-28 63 -74 0
36 -45 54 0
10 11 33 0
1 -40 -51 0
-13 20 -73 0
29 44 64 0
-23 55 -61 0
-18 -45 -46 0
19 -64 -65 0
42 -45 64 0
-28 29 59 0
6 8 -13 0
2 -20 -21 0
-24 31 -39 0
-23 -43 -73 0
-10 11 26 0
-12 -29 48 0
16 21 -30 0
-26 -31 -36 0
39 -62 72 0
61 -72 -73 0
-41 -67 -71 0
-41 -47 -60 0
-11 -17 -46 0
-9 -38 -52 0
28 56 -73 0
27 40 -61 0
-51 -57 66 0
-18 24 -71 0
36 -63 74 0
-7 -35 -64 0
-15 19 55 0
-25 -32 67 0
-19 28 -37 0
-50 62 70 0
26 -71 -72 0
-22 -25 56 0
6 -14 30 0
-7 14 -37 0
-7 19 -28 0
44 49 73 0
55 -64 -72 0
15 48 60 0
12 54 59 0
28 30 -34 0
-5 12 45 0
10 62 -71 0
-8 -21 59 0
-5 -49 69 0
-19 28 52 0
-2 -30 66 0
-48 52 73 0
24 59 61 0
58 63 -70 0
-35 -43 -61 0
-12 45 -52 0
-3 19 -70 0
-18 -33 -53 0
12 -47 72 0
37 -47 -56 0
3 -18 -33 0
11 -31 71 0
-55 -58 66 0
23 -61 -75 0
39 44 -46 0
-31 44 -67 0
34 44 -61 0
-15 -39 -70 0
-21 26 70 0
-2 32 -75 0
-11 -49 69 0
-26 36 71 0
1 -37 50 0
-5 -6 42 0
-17 58 -75 0
25 26 -50 0
40 -53 65 0
38 -51 -60 0
-6 -50 52 0
43 57 60 0
-1 -34 72 0
31 -72 -75 0
-16 -55 -67 0
-33 39 -55 0
25 27 55 0
-22 51 52 0
38 43 52 0
56 -73 74 0
8 15 -22 0
-43 51 67 0
-17 28 -71 0
5 -43 -65 0
17 70 -74 0
-7 -18 -36 0
48 59 -75 0
5 -27 -57 0
-9 38 41 0
42 -52 -53 0
-15 49 -66 0
42 -57 64 0
10 -37 61 0
-9 -34 71 0
-11 17 34 0
1 47 72 0
25 -33 -75 0
-9 48 51 0
49 61 -73 0
-49 53 65 0
-44 -57 65 0
-11 13 51 0
-5 35 44 0
2 -3 43 0
-5 30 57 0
7 -31 -37 0
27 -40 -67 0
4 -23 -70 0
4 21 -22 0
-34 -46 66 0
29 -37 74 0
-6 14 -69 0
5 20 56 0
-17 -34 -57 0
-8 -15 -36 0
-2 -23 63 0
15 -51 74 0
3 -24 70 0
27 -30 66 0
6 -49 -55 0
28 -37 -49 0
25 -60 -75 0
16 31 54 0
14 -65 -69 0
-26 35 37 0
39 41 63 0
-7 -39 65 0
-17 35 60 0
-28 47 -62 0
-39 41 67 0
-54 -70 -74 0
11 61 -68 0
-25 52 -53 0
4 -44 -63 0
7 45 -54 0
-18 -24 -53 0
31 47 -60 0
9 33 -54 0
-9 11 73 0
-4 23 -61 0
10 18 -57 0
-33 36 -68 0
-6 16 -70 0
-15 50 71 0
-1 -50 73 0
-20 56 -61 0
44 52 56 0
3 8 -48 0
39 63 72 0
-8 -39 -54 0
24 30 52 0
-37 44 59 0
54 -57 63 0
10 -23 60 0
21 41 62 0
29 56 62 0
-8 39 -75 0
7 -31 58 0
41 -49 -71 0
-2 -52 69 0
3 -42 46 0
-8 24 -27 0
-45 -47 68 0
-14 -32 50 0
-9 37 44 0
-12 -35 51 0
3 40 55 0
-50 -51 -55 0
30 41 -52 0
-13 52 -68 0
21 -32 -61 0
-25 40 74 0
-11 -50 74 0
9 10 -24 0
-35 -43 56 0
12 31 42 0
-4 33 -63 0
9 -31 -55 0
-16 -42 -47 0
3 -9 25 0

