c Generated by rand.py 50 250 3 654944
c Generator source: https://github.com/aaw/sat/blob/master/gen/rand.py
p cnf 50 250
10 30 43 0
-7 -10 -24 0
-10 11 23 0
-19 -33 -47 0
2 48 -50 0
-8 12 41 0
33 -41 47 0
5 -36 -37 0
7 35 42 0
-1 -4 39 0
-18 -29 38 0
-21 -37 -44 0
-21 49 -50 0
-9 -26 -35 0
14 15 38 0
-7 -15 -48 0
2 10 -31 0
33 34 -38 0
17 41 48 0
9 40 -44 0
23 29 35 0
-6 32 35 0
-14 25 26 0
-8 16 -39 0
-5 -7 39 0
-16 21 -32 0
7 35 39 0
21 30 48 0
12 15 -41 0
-7 23 -50 0
26 27 31 0
-14 -34 -43 0
19 -26 -33 0
-13 46 -49 0
3 12 -22 0
5 -13 26 0
-4 26 -41 0
13 14 23 0
6 18 -24 0
3 25 40 0
14 39 40 0
-1 -34 35 0
8 10 -50 0
6 13 -30 0
-2 -18 -48 0
1 -10 26 0
-1 17 19 0
35 -37 -43 0
-10 -17 -32 0
-29 41 44 0
-27 -29 47 0
1 -37 43 0
-7 -45 -49 0
6 8 19 0
-32 42 -49 0
-8 -21 -47 0
-9 11 41 0
3 -32 49 0
18 -29 -39 0
-12 15 -35 0
-14 34 -38 0
8 17 -29 0
1 -13 -22 0
6 24 -42 0
-12 31 38 0
-6 33 48 0
-20 21 22 0
-19 23 -35 0
27 -42 44 0
-20 25 -45 0
-2 15 29 0
4 10 46 0
1 -23 36 0
-3 35 -45 0
10 25 33 0
15 25 38 0
19 24 -42 0
-1 -6 -9 0
-1 -2 -20 0
-12 28 -33 0
-13 31 50 0
-15 38 42 0
-7 -27 -50 0
10 -19 43 0
9 15 -25 0
24 -34 46 0
-6 30 -40 0
6 8 18 0
-1 31 43 0
-8 46 -47 0
-3 29 -33 0
-11 -28 36 0
-16 25 50 0
21 25 45 0
21 -31 -42 0
11 31 50 0
-14 -33 43 0
-11 23 -36 0
1 17 -21 0
-7 -28 -35 0
3 -18 -29 0
-1 -21 22 0
-23 26 47 0
2 25 -39 0
-18 21 -29 0
15 25 49 0
5 -6 -32 0
-34 -37 42 0
-2 -33 -37 0
12 31 -32 0
-4 -25 34 0
-28 -32 -50 0
7 33 36 0
-3 -36 47 0
-12 25 26 0
-17 -23 -30 0
12 -36 -43 0
-6 -30 33 0
-20 27 42 0
33 36 -45 0
-14 -48 50 0
31 37 -46 0
22 31 37 0
1 23 49 0
-4 16 42 0
8 32 -45 0
5 -12 14 0
29 34 -43 0
-1 4 -12 0
28 31 -32 0
20 -35 -39 0
2 28 33 0
4 -8 -19 0
13 -16 47 0
-36 -41 -49 0
-4 9 -27 0
-18 22 -24 0
-7 22 44 0
4 -33 -50 0
3 9 -23 0
-7 -44 -50 0
-4 -25 40 0
3 -12 26 0
2 -11 15 0
15 23 37 0
12 -16 36 0
-2 -16 47 0
-15 -17 -30 0
-1 19 20 0
1 -3 -13 0
5 7 43 0
-13 17 24 0
-10 38 48 0
-7 -49 -50 0
-3 -17 -33 0
-12 37 47 0
-8 16 49 0
-2 8 -34 0
9 25 37 0
-2 23 37 0
2 3 8 0
2 34 42 0
-22 30 35 0
-20 -32 -36 0
-13 -20 -45 0
-5 -9 -10 0
2 -3 17 0
-8 -16 -21 0
-15 -41 -44 0
7 -35 -49 0
32 43 48 0
19 -38 45 0
-14 -30 -37 0
2 -6 -34 0
8 19 -27 0
24 28 30 0
3 9 -44 0
-1 -19 -41 0
16 21 -47 0
13 -25 45 0
-22 -34 -40 0
-16 30 -45 0
17 -31 46 0
-2 -7 50 0
-6 19 48 0
2 -16 -41 0
14 36 -48 0
-9 19 41 0
-6 16 -40 0
8 19 31 0
-20 42 46 0
18 -33 46 0
-4 7 -29 0
5 -10 20 0
-19 -24 -29 0
15 -17 23 0
-20 -24 -26 0
-12 16 -45 0
-17 18 -46 0
-3 -5 -34 0
19 30 34 0
16 18 -33 0
-1 -35 41 0
-1 5 -23 0
-11 12 -23 0
10 13 -34 0
9 42 -49 0
20 -39 -49 0
6 41 -47 0
3 34 -36 0
1 3 8 0
-20 25 47 0
-27 36 -48 0
37 47 48 0
-2 -38 -48 0
16 -43 44 0
1 -38 -42 0
5 -7 -38 0
13 40 -48 0
-22 27 46 0
6 -20 -25 0
2 -38 -42 0
-20 31 47 0
-17 -38 -40 0
-3 20 40 0
5 -24 -31 0
17 23 -43 0
-5 33 41 0
-32 -44 49 0
-10 18 28 0
8 36 -37 0
-21 -32 34 0
11 28 -37 0
10 -17 -43 0
1 -46 -49 0
2 -23 -39 0
25 -26 -45 0
18 33 -37 0
-26 -27 35 0
-16 19 -50 0
-1 -10 -14 0
-6 24 38 0
-23 -36 -46 0
-7 -11 44 0
25 -27 34 0
24 -26 36 0
9 -22 -42 0
-29 -31 -32 0
-9 46 47 0
-19 35 41 0

