c Generated by rand.py 100 500 3 123935
c Generator source: https://github.com/aaw/sat/blob/master/gen/rand.py
p cnf 100 500
20 -44 -48 0
-3 -57 -86 0
16 30 38 0
-13 28 61 0
-13 52 91 0
39 51 -93 0
15 -33 82 0
33 -55 69 0
26 50 -100 0
41 -50 60 0
13 66 -93 0
-34 -36 -60 0
17 39 -61 0
69 -74 83 0
-15 -81 82 0
41 47 -92 0
2 28 32 0
5 57 -63 0
54 66 74 0
51 -91 -98 0
31 40 74 0
12 -27 -97 0
17 36 -38 0
-11 72 87 0
-9 -14 -96 0
44 -45 80 0
-29 -30 68 0
91 93 -96 0
-43 -71 -81 0
36 -46 61 0
5 58 -85 0
-16 -25 -34 0
33 50 -59 0
18 35 -60 0
63 78 -87 0
-11 -66 -98 0
-12 -47 74 0
-19 -30 -90 0
-35 -62 65 0
-28 -38 41 0
-52 -60 75 0
-1 -94 97 0
16 77 99 0
52 54 -61 0
-52 -77 -91 0
-15 17 -68 0
-51 -67 -69 0
6 -18 69 0
8 -74 -76 0
-5 -42 -90 0
-10 -73 94 0
5 -18 -47 0
33 -43 -50 0
-10 -79 100 0
-35 55 -84 0
-4 -37 40 0
-44 -69 -86 0
36 -52 95 0
9 30 35 0
-29 -63 68 0
4 10 21 0
-15 -47 71 0
3 69 -99 0
28 57 60 0
-15 -35 47 0
30 -47 -91 0
70 -87 -95 0
7 23 -97 0
-29 -55 75 0
-10 40 -46 0
68 75 85 0
2 -31 79 0
3 29 43 0
39 41 -66 0
29 -64 -81 0
-22 30 66 0
3 -45 -91 0
-19 -64 -99 0
23 59 77 0
19 50 85 0
-14 -37 64 0
-75 80 91 0
-24 -71 -92 0
25 39 94 0
-8 -36 -85 0
46 62 87 0
-28 53 -91 0
-22 25 33 0
6 -52 88 0
20 -56 68 0
-14 68 79 0
6 -25 -73 0
-3 7 -75 0
5 -21 -43 0
-33 -81 99 0
8 -74 84 0
29 59 83 0
4 22 -26 0
-9 -23 32 0
-33 52 55 0
-13 31 -67 0
56 60 -67 0
-33 -49 -76 0
-51 85 95 0
-45 -85 -100 0
25 -29 75 0
-11 -64 -76 0
66 -89 92 0
-12 -50 -95 0
-15 -40 -68 0
-39 50 -59 0
-13 -20 -57 0
3 -66 84 0
10 34 -39 0
-34 57 64 0
-32 37 -57 0
29 38 -45 0
-19 -53 92 0
37 -73 98 0
-13 -15 31 0
25 -71 87 0
4 33 85 0
10 -25 66 0
-29 65 99 0
-31 -89 -100 0
20 -34 -81 0
5 -32 -88 0
37 -48 61 0
13 18 56 0
-49 52 93 0
1 -9 -15 0
-24 -33 37 0
51 69 -100 0
1 -59 -83 0
1 -39 -67 0
31 42 60 0
-1 -28 95 0
13 26 71 0
-25 -86 88 0
12 42 -85 0
-2 32 -97 0
4 18 -99 0
14 -44 63 0
9 -23 -42 0
-69 74 -94 0
-4 -40 55 0
-2 -48 -51 0
28 79 -97 0
16 73 -81 0
-53 -80 84 0
-16 -32 -100 0
-12 35 72 0
-69 -88 89 0
-39 -62 90 0
-4 19 56 0
19 47 56 0
52 53 89 0
18 -44 94 0
8 -44 -65 0
-25 -70 -85 0
1 -24 49 0
-15 -21 -34 0
23 -35 89 0
-27 -41 92 0
-3 53 56 0
19 -31 70 0
-11 40 65 0
35 57 -66 0
-10 -44 77 0
15 20 -33 0
9 -42 72 0
27 -89 -93 0
-1 -48 -73 0
5 39 44 0
-47 -92 94 0
34 -46 49 0
9 16 20 0
-20 40 -51 0
-1 4 -55 0
2 27 -65 0
13 59 80 0
1 14 -90 0
-64 69 -83 0
-3 58 -100 0
17 -21 -98 0
3 -90 -100 0
-57 -65 -92 0
-35 -74 -78 0
-54 76 88 0
20 -53 -70 0
-24 -60 -76 0
-46 65 -86 0
-66 68 69 0
-2 11 -35 0
-19 31 -39 0
31 32 39 0
-21 -60 95 0
-2 52 -94 0
25 72 78 0
-15 -60 93 0
33 -66 82 0
6 11 -75 0
41 58 -87 0
47 -77 97 0
-1 -14 93 0
-6 19 -27 0
-4 -19 -23 0
-24 -47 -84 0
-27 91 -99 0
-1 23 29 0
36 -54 100 0
-63 -67 96 0
-15 -42 -87 0
7 76 -93 0
8 -25 73 0
-5 -97 -100 0
-44 76 -77 0
15 47 69 0
40 -77 100 0
-38 -47 51 0
-39 -65 -74 0
-43 64 -83 0
-34 -40 90 0
4 67 76 0
-4 60 -86 0
24 -57 66 0
-38 -52 -59 0
9 -48 -60 0
4 -25 -27 0
18 -33 -81 0
-18 26 80 0
22 42 -100 0
-14 28 66 0
24 70 72 0
35 62 85 0
-6 20 77 0
50 -55 95 0
36 -37 -96 0
12 -56 -86 0
-15 -30 -92 0
-42 -49 -73 0
22 -37 -54 0
-52 90 93 0
14 -28 54 0
17 35 72 0
33 -74 -90 0
-23 60 97 0
-28 43 86 0
-5 53 -95 0
-6 20 55 0
18 -66 -95 0
-8 -76 -89 0
-35 -36 49 0
-39 -83 85 0
-17 -20 -98 0
-51 -60 -98 0
34 48 72 0
-12 22 64 0
-52 72 -88 0
19 24 -63 0
-33 -62 -64 0
15 -27 91 0
-37 67 83 0
-49 -51 -58 0
14 -63 -74 0
83 84 -91 0
-45 77 93 0
23 -43 -47 0
-12 -32 74 0
8 -12 85 0
42 -43 -53 0
7 12 -75 0
-11 74 82 0
-11 28 -85 0
-35 64 79 0
4 -72 92 0
-29 -41 -62 0
-30 47 57 0
-9 -46 -48 0
-56 -66 -99 0
-36 37 43 0
-17 28 -33 0
10 19 41 0
-40 49 56 0
21 24 37 0
-25 51 -57 0
7 -21 33 0
-24 67 -77 0
6 -46 98 0
-6 -41 -75 0
32 46 -53 0
-64 -70 -79 0
-32 79 -86 0
-7 -37 39 0
19 -30 -82 0
-18 -67 96 0
-27 -50 80 0
-7 -87 89 0
-9 23 55 0
13 20 -31 0
-21 55 79 0
18 -23 -77 0
72 87 -99 0
-24 67 81 0
-2 51 -67 0
-9 -26 57 0
43 77 83 0
-51 -63 92 0
-8 -37 -45 0
57 85 88 0
-22 53 84 0
13 29 -42 0
11 -84 88 0
-9 11 48 0
-42 66 98 0
15 -54 -77 0
65 -72 -90 0
-10 44 -70 0
-59 62 86 0
49 58 80 0
17 -49 -55 0
9 -62 -93 0
81 -88 -93 0
13 -46 82 0
-26 34 83 0
14 -61 66 0
4 60 -97 0
-45 -59 86 0
-44 54 89 0
30 45 68 0
-2 -61 96 0
28 35 -79 0
-35 58 -59 0
-28 -42 -60 0
15 -51 97 0
67 89 -96 0
17 58 90 0
32 67 83 0
-10 -26 27 0
45 -85 91 0
-23 78 93 0
-34 37 41 0
-1 10 -68 0
-7 -60 -89 0
-9 -20 28 0
-70 -94 -98 0
37 -52 -74 0
13 45 -46 0
-24 38 73 0
11 13 -64 0
43 48 -99 0
-5 -24 -68 0
-18 -37 47 0
-9 -40 -73 0
-6 -69 -97 0
-33 51 -56 0
1 -16 -57 0
-8 14 71 0
-12 -79 81 0
20 29 66 0
-9 16 36 0
-4 9 -49 0
-5 -10 -54 0
54 67 -84 0
-12 14 33 0
-23 59 86 0
-13 -33 96 0
-8 -58 79 0
-60 -92 97 0
-5 61 -78 0
67 -72 87 0
5 -7 -81 0
-13 -44 87 0
71 -79 98 0
27 -56 61 0
-28 -57 91 0
-15 -39 65 0
-51 -89 95 0
21 -36 -39 0
-4 33 69 0
-10 -58 -61 0
51 70 -89 0
45 -65 -70 0
8 53 -56 0
2 29 38 0
-4 31 -59 0
-18 -87 97 0
-65 68 -89 0
-14 92 -94 0
16 64 95 0
53 55 -87 0
9 20 -56 0
33 35 -36 0
-27 -54 -75 0
19 89 98 0
-4 -91 -92 0
10 54 -92 0
-25 -27 39 0
-10 -33 -74 0
-58 -61 -84 0
-56 -79 85 0
-6 42 72 0
20 85 97 0
2 46 68 0
-52 -56 70 0
-3 -52 -91 0
-58 -60 76 0
3 28 50 0
22 -24 -37 0
-47 -91 96 0
-17 28 47 0
-42 56 -95 0
-11 97 -100 0
-5 -42 43 0
15 41 -94 0
-2 -34 -91 0
-22 -58 84 0
-5 30 -73 0
-6 52 68 0
21 30 31 0
44 59 84 0
7 84 89 0
-24 -47 87 0
-5 15 -45 0
-8 -43 60 0
11 24 98 0
64 72 83 0
49 -66 98 0
-72 -90 -93 0
1 41 -88 0
43 -44 -100 0
35 -46 62 0
-15 -54 -66 0
-3 -20 47 0
-31 -58 -74 0
-5 12 -71 0
-4 -18 -41 0
26 -50 -69 0
-20 26 -51 0
-41 82 84 0
-80 -82 -84 0
22 -25 51 0
24 -42 43 0
4 -38 82 0
-3 -42 -44 0
17 -36 -97 0
-58 -65 -75 0
1 -73 -90 0
32 -43 -72 0
-28 84 -95 0
24 -49 95 0
-54 -62 -90 0
-81 87 97 0
-8 -53 55 0
71 -81 87 0
3 56 -62 0
-10 -51 91 0
-45 54 97 0
-11 13 67 0
-20 45 72 0
-11 16 -80 0
15 -50 -81 0
24 -64 -82 0
24 -54 87 0
35 -36 83 0
9 -35 -57 0
-13 24 84 0
13 -78 -84 0
-6 69 92 0
-13 39 68 0
-1 53 73 0
16 40 -67 0
-3 24 77 0
-13 26 -36 0
-20 46 -66 0
-22 29 -93 0
2 -53 -69 0
9 53 -58 0
1 22 70 0
-12 61 95 0
1 18 -59 0
34 -49 90 0
-40 62 -67 0
50 59 -83 0
35 -74 79 0
-41 -46 90 0
-16 -56 -96 0
-25 -74 -78 0
53 -59 -84 0
-30 -86 -96 0
-5 -7 72 0
-1 48 -81 0
63 68 -81 0
32 44 52 0
-52 76 92 0
85 87 91 0
-51 73 97 0
-21 -50 86 0
43 -73 -81 0
-3 84 -88 0

