c Generated by rand.py 75 375 3 175580
c Generator source: https://github.com/aaw/sat/blob/master/gen/rand.py
p cnf 75 375
21 -30 -41 0
36 72 -73 0
-7 35 72 0
6 15 67 0
20 -35 54 0
-2 43 44 0
23 -65 -68 0
34 52 70 0
-21 23 -36 0
2 31 63 0
-1 4 -18 0
42 54 72 0
-14 50 64 0
-8 -11 63 0
-13 -30 -51 0
1 -8 13 0
-13 -19 -23 0
-35 -42 -51 0
13 -29 -45 0
-15 32 -62 0
-41 46 75 0
1 26 -46 0
6 -12 49 0
16 -38 -55 0
-20 -44 -60 0
13 20 -62 0
26 -70 71 0
-3 -10 -63 0
-7 30 39 0
29 51 -57 0
-33 -53 -60 0
33 60 70 0
10 -34 -74 0
-46 -59 -60 0
17 60 -64 0
16 22 -49 0
-29 39 -45 0
41 -73 -75 0
-25 -31 37 0
-15 38 42 0
-6 -40 42 0
48 -53 61 0
-12 13 -71 0
-27 -36 37 0
5 24 -65 0
-36 -40 -70 0
-20 22 -41 0
17 46 70 0
34 52 65 0
1 -36 -68 0
32 61 75 0
3 53 60 0
-13 -28 -42 0
42 -54 69 0
1 38 56 0
-21 32 40 0
-10 -19 -57 0
-6 -40 75 0
16 -70 75 0
41 55 -56 0
-14 36 50 0
-19 -34 -62 0
-5 -31 -49 0
62 64 -72 0
18 31 -65 0
-13 23 43 0
-4 30 69 0
2 -30 66 0
22 -36 56 0
5 45 71 0
44 54 -67 0
-1 -42 -70 0
-16 -53 68 0
-12 13 -37 0
3 4 -60 0
-30 60 74 0
48 57 -72 0
39 40 66 0
8 -61 -67 0
-25 -37 61 0
-25 -47 68 0
21 44 -66 0
-23 35 -49 0
-16 -29 -38 0
3 -43 -64 0
-13 -26 -44 0
-10 -26 64 0
-1 -6 -40 0
22 -50 58 0
-1 5 41 0
38 66 69 0
31 -36 -52 0
15 28 50 0
20 -22 -53 0
-30 64 68 0
-18 -27 -58 0
-5 6 7 0
-7 41 -57 0
48 -60 -75 0
26 -47 -54 0
4 -49 52 0
27 50 65 0
-10 14 33 0
5 18 23 0
22 -57 63 0
3 36 -63 0
-11 13 52 0
42 60 -64 0
-8 -54 59 0
-15 -32 40 0
-5 -64 75 0
-9 -71 -72 0
-20 57 -75 0
31 37 39 0
27 30 36 0
3 -31 -75 0
48 52 -60 0
24 47 49 0
-21 25 73 0
-11 71 72 0
-13 36 -56 0
-27 50 -54 0
10 31 -69 0
-10 24 -75 0
-14 -51 59 0
-32 -52 67 0
9 -16 39 0
20 53 -63 0
-16 28 74 0
-24 41 64 0
-2 20 -34 0
3 -35 44 0
-22 -36 -37 0
-38 66 71 0
-2 -60 -69 0
-7 31 -52 0
29 -52 72 0
10 16 32 0
-35 -40 -63 0
3 4 34 0
-26 -64 -66 0
-25 30 57 0
-23 26 -39 0
22 57 60 0
-1 10 11 0
67 70 71 0
45 -56 65 0
12 -17 -57 0
8 15 19 0
-17 42 -69 0
-3 -63 -75 0
-3 -23 -43 0
46 61 -65 0
1 -18 -28 0
-22 42 -69 0
-29 44 -61 0
-56 -62 69 0
36 41 56 0
-18 -53 -72 0
-1 -21 -41 0
-11 -31 43 0
-34 39 -50 0
-2 19 -68 0
-11 -36 -47 0
2 3 61 0
29 48 55 0
4 -35 -58 0
2 -10 11 0
6 16 27 0
-6 -57 66 0
-21 67 -74 0
40 54 -65 0
-4 53 -56 0
12 46 65 0
5 -18 -59 0
-6 -49 54 0
20 26 43 0
39 -58 -68 0
-15 62 74 0
3 -6 46 0
-39 41 58 0
-13 -39 61 0
4 -13 -19 0
18 26 -60 0
1 18 21 0
13 15 -36 0
17 30 41 0
5 15 -70 0
8 -70 -71 0
8 -64 74 0
-26 -56 61 0
17 39 50 0
34 38 -48 0
6 -47 61 0
-6 23 -30 0
-6 -43 -45 0
-23 34 -74 0
21 -30 68 0
-54 -63 -65 0
-5 -51 66 0
-8 64 71 0
3 -4 15 0
-52 -56 70 0
-8 -53 72 0
-2 50 70 0
9 -20 -68 0
4 8 -66 0
-4 65 -75 0
-5 -56 -59 0
-27 -39 67 0
7 -34 -60 0
-4 -22 25 0
-14 -50 -53 0
54 -56 61 0
-33 -40 -45 0
14 20 51 0
-42 45 64 0
6 54 -60 0
-18 -32 -67 0
10 -22 -64 0
16 -18 -74 0
-52 57 -68 0
-36 40 74 0
-26 30 32 0
15 40 -62 0
13 44 61 0
-36 -61 67 0
20 40 49 0
-9 -20 75 0
-5 -59 66 0
6 11 -52 0
3 50 -54 0
-37 -44 -63 0
-27 -30 48 0
-2 11 -48 0
-26 44 -58 0
35 60 -62 0
24 -68 75 0
11 41 62 0
6 24 72 0
-7 -42 46 0
18 23 -63 0
21 -25 39 0
-14 29 -46 0
-8 53 -70 0
-47 50 66 0
1 -41 -72 0
-20 -38 -54 0
2 42 -44 0
-15 17 -46 0
23 66 71 0
42 49 -51 0
35 40 68 0
-17 23 -39 0
14 23 46 0
-45 -59 73 0
-12 -45 55 0
42 -51 65 0
-3 40 42 0
-35 -44 64 0
20 -33 68 0
-42 45 -63 0
23 -27 30 0
-30 -52 -57 0
14 -56 -63 0
-7 9 35 0
14 -48 54 0
-36 52 -66 0
50 -51 -71 0
-2 -46 -49 0
14 18 62 0
-13 35 -55 0
-50 59 64 0
-41 -47 -61 0
-2 -34 74 0
-36 -42 49 0
-20 -35 -66 0
-37 44 63 0
1 3 25 0
-12 15 -29 0
-13 27 -69 0
53 -69 -72 0
1 8 38 0
-17 30 -75 0
-9 55 -62 0
-3 -16 23 0
-23 27 54 0
-1 33 -53 0
14 37 -43 0
-19 28 68 0
-1 6 -30 0
9 -66 73 0
29 -33 -34 0
-51 55 72 0
-42 -69 72 0
16 -43 -61 0
-16 28 61 0
-29 44 56 0
2 49 58 0
5 -8 -21 0
-21 -63 -72 0
50 -65 -75 0
-10 40 71 0
11 29 -75 0
-38 -68 74 0
29 -35 -59 0
8 10 72 0
4 -18 62 0
8 -29 -45 0
-8 -47 58 0
5 27 45 0
4 -31 -62 0
41 53 75 0
54 59 -75 0
-33 -55 -57 0
11 27 -59 0
29 47 -62 0
10 -14 -51 0
3 54 57 0
-37 61 71 0
-3 -29 -73 0
-15 22 46 0
14 -24 -63 0
-5 27 -37 0
-12 -44 55 0
-9 11 60 0
-47 55 -70 0
-12 31 -72 0
11 -47 -66 0
14 46 73 0
-30 39 68 0
32 -63 72 0
-4 -54 -55 0
14 -21 75 0
6 -12 60 0
-22 53 63 0
-41 -66 68 0
21 27 71 0
-14 38 -71 0
6 10 -36 0
6 -13 32 0
21 -45 55 0
21 27 69 0
-4 -72 -74 0
37 -48 59 0
-9 -19 -60 0
29 41 -47 0
12 -27 -43 0
-23 -41 -42 0
55 -57 -63 0
17 -42 -50 0
-9 -10 -46 0
-14 27 44 0
23 -47 55 0
-5 -40 55 0
8 52 66 0
-34 35 -61 0
17 40 -70 0
-12 47 57 0
-22 -27 38 0
-34 36 41 0
-13 -28 54 0
36 53 -75 0
4 8 -21 0
16 29 73 0
35 -46 -47 0
-2 -33 -42 0
-14 35 61 0
-2 3 28 0
27 40 42 0
36 -46 -48 0
-31 34 -38 0
-1 -39 41 0
28 47 -54 0
25 39 48 0

