c Generated by rand.py 50 250 3 281062
c Generator source: https://github.com/aaw/sat/blob/master/gen/rand.py
p cnf 50 250
-3 48 50 0
17 19 -28 0
-12 31 -35 0
19 -34 46 0
-1 13 -28 0
6 31 36 0
-5 17 33 0
12 25 -46 0
-6 -15 -49 0
23 28 36 0
-16 -29 -46 0
-2 -15 34 0
19 -33 -48 0
-13 -29 48 0
36 41 47 0
13 -34 -42 0
-28 31 43 0
-1 -41 -49 0
-20 -21 -44 0
18 -28 -29 0
-27 -33 -39 0
-11 -32 -50 0
6 -30 33 0
-4 -5 -21 0
3 -16 35 0
29 -33 50 0
2 8 39 0
5 24 26 0
-1 3 22 0
10 13 31 0
-1 26 50 0
-6 9 -49 0
-23 25 -43 0
-29 31 -41 0
-9 -27 34 0
4 43 45 0
-9 -24 -33 0
-28 49 50 0
-1 23 -30 0
-35 36 -38 0
22 -37 43 0
-10 26 37 0
-4 -23 -46 0
5 -15 -32 0
14 -30 44 0
-21 38 -44 0
6 41 -49 0
8 -42 -49 0
-16 -18 -37 0
-8 -20 -38 0
-13 -22 -50 0
5 12 -21 0
20 -22 -46 0
-3 -35 44 0
-1 8 47 0
-9 35 -37 0
23 -34 38 0
6 -8 -36 0
-27 41 45 0
8 -9 -31 0
-7 -11 -40 0
-20 -30 33 0
2 5 -38 0
-28 -40 43 0
6 8 -42 0
4 5 49 0
10 -18 -35 0
22 -45 -46 0
24 -25 -33 0
-33 -44 -45 0
-23 45 47 0
28 -34 -49 0
-14 17 25 0
8 27 43 0
-8 9 48 0
-11 -28 46 0
1 42 -43 0
-9 34 -45 0
-3 -22 -50 0
27 39 -42 0
-9 -18 45 0
18 -33 -44 0
-10 -15 27 0
-27 28 39 0
-6 25 -41 0
18 20 -42 0
-2 14 48 0
12 -14 -23 0
-19 38 -40 0
-31 -35 39 0
-9 21 -32 0
-12 17 -27 0
-33 -40 -50 0
-8 15 -32 0
-5 15 -36 0
9 -37 39 0
-19 -24 39 0
25 -38 -42 0
-18 -26 45 0
-1 -3 -14 0
28 -35 -47 0
-22 -27 -38 0
28 29 37 0
-11 -33 50 0
10 28 29 0
1 -9 32 0
13 43 45 0
-7 -14 43 0
34 -41 -48 0
-4 42 43 0
-31 41 -42 0
19 -20 49 0
15 36 -50 0
-1 -39 -41 0
-21 30 49 0
-26 -38 -43 0
-1 -8 41 0
9 -12 24 0
26 27 -45 0
26 35 -48 0
5 -24 -43 0
1 22 32 0
6 12 27 0
-8 25 45 0
-23 -29 -45 0
-6 -34 44 0
-9 -16 25 0
-7 9 43 0
-8 -11 -16 0
-15 19 -26 0
-2 43 45 0
10 16 -30 0
6 -48 -50 0
-16 -26 30 0
5 -28 37 0
-36 41 -47 0
29 43 -46 0
27 -31 40 0
8 -9 -16 0
10 16 18 0
11 -14 17 0
-1 -21 -31 0
-9 -10 16 0
21 -31 36 0
23 28 29 0
15 43 -47 0
-2 -3 42 0
33 37 -41 0
5 -9 -10 0
2 -4 -6 0
5 -9 15 0
14 46 -49 0
-10 13 16 0
12 24 49 0
1 -9 12 0
-13 18 38 0
-1 -4 48 0
20 -23 43 0
21 31 33 0
-21 -24 -34 0
-4 34 -36 0
27 -35 -48 0
-7 11 -47 0
15 48 50 0
-9 20 -31 0
-11 -23 26 0
-7 24 -29 0
-22 37 -48 0
-5 -11 41 0
42 -46 -50 0
2 22 -24 0
-9 -14 27 0
-16 -24 -45 0
-4 -10 -18 0
20 29 -38 0
7 11 26 0
3 10 17 0
-17 23 40 0
-8 -23 -35 0
-20 -29 44 0
4 -31 47 0
-8 -14 38 0
7 -15 41 0
-14 -15 16 0
-2 -27 47 0
-14 29 -43 0
-12 20 22 0
7 14 -37 0
9 20 -46 0
-12 -22 43 0
-1 10 -48 0
17 41 -45 0
12 -32 36 0
-4 -9 -35 0
-4 6 36 0
-18 22 30 0
12 -20 -48 0
-15 30 -45 0
8 -10 -37 0
14 -22 31 0
-1 -29 38 0
11 -22 -38 0
-19 32 35 0
-2 -7 -20 0
1 -13 -48 0
-2 -17 -50 0
16 18 40 0
29 38 -50 0
15 17 -37 0
-6 -26 32 0
4 -41 -47 0
33 39 -49 0
1 -12 -46 0
-16 -42 45 0
5 -38 -49 0
5 16 42 0
3 19 -37 0
21 25 -42 0
-6 10 46 0
9 13 -44 0
-20 -22 46 0
7 -16 46 0
25 37 -39 0
-13 31 -50 0
3 -37 47 0
-1 27 39 0
-7 -30 -34 0
-2 12 -26 0
-5 8 -19 0
-17 -21 -24 0
9 -13 -18 0
-3 31 45 0
-1 -42 -49 0
2 -11 43 0
15 32 46 0
-2 -13 -41 0
22 -24 47 0
-2 15 -31 0
14 20 47 0
5 -6 -18 0
15 19 -47 0
-23 -43 44 0
11 -46 -47 0
32 -35 44 0
-15 -34 43 0
-9 -15 -20 0
6 -30 48 0
-11 -16 46 0
7 -26 -30 0
-11 34 41 0

