c Generated by rand.py 75 375 3 395839
c Generator source: https://github.com/aaw/sat/blob/master/gen/rand.py
p cnf 75 375
-2 -18 22 0
-13 33 73 0
-9 -25 -51 0
15 -54 -70 0
9 -31 -34 0
-19 46 59 0
-4 35 -63 0
6 -10 -43 0
-31 -35 64 0
-3 10 13 0
16 41 -59 0
-19 -39 -73 0
-22 -35 52 0
19 -40 51 0
-28 41 -73 0
-31 58 63 0
34 49 73 0
2 40 -45 0
-33 48 56 0
-6 34 -40 0
21 -45 57 0
53 -58 -60 0
29 -37 48 0
11 16 60 0
43 46 -65 0
-26 68 -71 0
-3 25 36 0
3 31 -40 0
37 49 50 0
-40 -54 63 0
-11 -35 -59 0
10 -58 62 0
64 -67 69 0
3 8 -39 0
1 10 42 0
-5 40 -56 0
2 -7 -54 0
10 20 68 0
24 -27 -29 0
-8 16 -57 0
10 34 -35 0
-29 55 75 0
29 32 -49 0
16 21 -53 0
18 -22 -63 0
8 14 -68 0
13 -63 -67 0
-55 56 -59 0
-23 50 -54 0
4 42 -62 0
-19 73 -74 0
-15 -18 -34 0
-21 28 -67 0
6 13 43 0
-1 9 -72 0
14 -35 -69 0
19 -29 -34 0
7 22 65 0
36 43 68 0
1 -40 -48 0
38 41 54 0
-5 14 19 0
-33 66 75 0
11 -49 -72 0
3 47 56 0
1 -49 70 0
-23 30 33 0
-17 -47 -53 0
33 -41 -71 0
18 -25 -36 0
21 -63 -75 0
-8 -13 64 0
25 34 -65 0
1 18 39 0
9 -12 -20 0
6 17 -46 0
15 52 65 0
-3 52 63 0
1 -26 -56 0
-16 -19 -38 0
-45 66 70 0
-1 -49 72 0
-1 -22 -44 0
-8 -11 50 0
-17 22 39 0
-8 -47 62 0
10 -29 -30 0
-9 -40 51 0
4 25 56 0
-9 23 57 0
-10 -24 54 0
-4 28 -29 0
-33 37 48 0
19 40 46 0
-46 57 62 0
13 31 -48 0
19 -25 26 0
7 18 39 0
53 71 -72 0
-36 45 58 0
50 -59 63 0
12 -25 58 0
2 -11 -55 0
39 55 56 0
-14 57 -62 0
2 -39 45 0
-16 -25 74 0
-1 9 49 0
-26 -29 -63 0
1 36 -67 0
4 -23 56 0
23 -40 61 0
-6 7 -57 0
-16 22 74 0
12 -14 -57 0
14 22 56 0
-9 55 66 0
5 -56 -63 0
-14 50 -70 0
-29 -37 -45 0
-40 58 59 0
40 -60 66 0
-47 73 -74 0
39 -67 -75 0
13 32 -75 0
14 -17 56 0
-14 -38 55 0
22 -28 45 0
40 42 74 0
-1 25 -40 0
-4 18 23 0
43 -57 -68 0
10 32 54 0
15 29 -72 0
9 -33 51 0
-50 54 67 0
-18 30 65 0
-53 -57 -67 0
-13 -68 -75 0
-12 -17 -18 0
-7 19 -50 0
2 -34 -41 0
-24 -31 -60 0
-14 28 70 0
9 23 71 0
-15 -21 40 0
-2 14 19 0
-6 74 75 0
-14 28 66 0
6 -39 -69 0
-11 -17 -43 0
-1 -17 -64 0
-17 -32 67 0
-3 8 33 0
21 -22 35 0
21 -52 -66 0
4 -40 59 0
42 47 -59 0
-14 -71 74 0
27 71 -75 0
-18 -61 -62 0
-15 -45 -62 0
-19 -28 72 0
-27 40 54 0
23 -37 -64 0
39 46 60 0
-6 -25 -42 0
54 62 -73 0
53 61 -62 0
1 53 69 0
-7 -42 74 0
-3 16 -59 0
6 14 60 0
-21 -33 -55 0
-28 -37 -43 0
-16 -41 62 0
1 -34 73 0
-16 -26 54 0
20 -27 35 0
9 -14 44 0
-40 48 -63 0
-21 -36 52 0
37 46 62 0
26 -27 -29 0
9 30 -38 0
55 69 73 0
-1 18 26 0
-3 -72 -75 0
55 -65 71 0
-4 -28 -46 0
-32 -36 -58 0
-17 24 -29 0
16 24 56 0
30 -66 74 0
-39 69 70 0
-42 48 66 0
26 37 60 0
-41 -50 -73 0
-20 -25 29 0
-47 53 62 0
8 11 -75 0
9 -27 -75 0
3 -44 -69 0
-45 -62 66 0
24 -38 46 0
-42 -45 52 0
29 30 -51 0
13 37 -66 0
45 52 58 0
17 46 67 0
20 38 -71 0
-12 -16 -42 0
-1 -3 12 0
-11 37 -71 0
-55 70 -74 0
39 40 64 0
-8 -58 67 0
11 39 71 0
-52 -61 -75 0
7 37 -41 0
-34 -52 66 0
13 -17 -68 0
10 25 59 0
13 -32 48 0
24 35 -48 0
16 47 -49 0
41 55 62 0
10 43 -71 0
-14 -15 21 0
8 -52 -56 0
10 16 -62 0
-61 -65 72 0
4 -12 -14 0
-10 -44 -57 0
-20 -57 -70 0
10 22 33 0
-7 16 -26 0
42 49 -69 0
17 48 -54 0
-20 -54 72 0
-25 -61 -63 0
-22 53 74 0
34 50 -59 0
-10 33 38 0
-14 24 30 0
15 -37 42 0
-23 -24 71 0
6 62 -63 0
-29 48 -67 0
16 32 70 0
-22 -54 57 0
11 -42 -68 0
17 -67 74 0
-7 18 43 0
21 -43 60 0
-34 59 72 0
20 -65 -73 0
49 59 75 0
-41 -68 -75 0
-14 -65 -68 0
3 -48 69 0
-2 13 -15 0
20 51 -56 0
47 64 65 0
-28 -42 -44 0
-10 -54 -56 0
-19 -56 64 0
1 -27 -49 0
-24 -53 -70 0
11 -40 -74 0
-29 -69 72 0
1 35 56 0
60 -62 -71 0
16 -25 -44 0
25 60 65 0
6 21 -52 0
-19 68 70 0
-42 43 -51 0
-14 -55 57 0
-4 -28 38 0
8 -57 59 0
-29 -69 73 0
9 -36 -61 0
-42 -44 66 0
34 54 75 0
1 -28 -39 0
-38 -43 48 0
-14 -40 42 0
12 23 59 0
-1 2 17 0
13 42 69 0
36 -59 68 0
-10 44 55 0
19 -36 58 0
-37 -54 -58 0
11 -12 -52 0
-22 -46 -72 0
16 35 68 0
10 26 46 0
-14 29 -42 0
9 40 -62 0
-14 -52 -70 0
55 59 63 0
17 42 65 0
33 52 -63 0
6 -26 33 0
8 -57 -63 0
-8 55 61 0
-64 66 70 0
8 46 48 0
14 30 -31 0
-1 -48 -57 0
-28 54 68 0
-21 34 68 0
-24 -36 -42 0
30 47 -68 0
-28 -40 -45 0
5 -65 -75 0
-28 -29 38 0
-47 -55 -61 0
-7 -20 58 0
-10 19 32 0
3 20 -44 0
18 -36 41 0
40 67 72 0
13 36 -57 0
19 -70 -73 0
-18 -29 63 0
-3 18 -63 0
-22 -70 73 0
-46 50 56 0
-44 -46 -72 0
-13 53 -55 0
6 8 -48 0
-23 -56 -69 0
18 -54 69 0
31 -50 56 0
10 -14 65 0
-36 51 63 0
-20 -48 -52 0
36 50 -52 0
5 -37 -70 0
25 -54 74 0
22 -35 40 0
-12 -71 -73 0
-19 30 50 0
13 51 73 0
-3 20 -50 0
-28 31 43 0
-2 13 -29 0
9 -25 54 0
-35 65 -68 0
11 30 47 0
53 59 -63 0
-17 -40 -69 0
-8 -31 67 0
16 32 -59 0
22 24 -27 0
30 -35 -63 0
-6 24 43 0
16 34 -44 0
29 68 -75 0
19 32 -37 0
-53 -61 70 0
18 -30 61 0
-4 23 69 0
-14 -21 58 0
-12 -25 -75 0
-18 -39 -59 0
21 -34 71 0
-9 30 34 0
-14 47 -69 0
-22 -30 -35 0
37 -51 64 0
26 47 69 0

