c Generated by rand.py 50 250 3 383733
c Generator source: https://github.com/aaw/sat/blob/master/gen/rand.py
p cnf 50 250
35 39 43 0
-16 -25 -40 0
11 22 27 0
-1 19 31 0
-12 21 32 0
-24 -33 -35 0
-5 -11 17 0
13 -18 -20 0
3 35 -36 0
9 -11 -44 0
-5 17 -28 0
6 -34 -42 0
15 23 -41 0
-22 25 37 0
-9 -32 -47 0
7 15 18 0
8 -25 35 0
-21 22 35 0
-2 13 -25 0
-3 -27 29 0
19 35 -45 0
-4 17 33 0
-12 38 49 0
5 21 -37 0
33 -34 36 0
-11 -30 -37 0
13 20 -31 0
-11 28 37 0
-12 43 -47 0
-16 35 46 0
-18 26 44 0
8 -31 38 0
-6 -18 26 0
7 20 -43 0
24 -41 -44 0
-22 30 31 0
-5 -11 -14 0
-19 29 -42 0
-31 -41 49 0
-21 -30 -41 0
-13 -46 48 0
-21 44 -46 0
17 -30 -39 0
-9 -29 45 0
-18 19 23 0
-14 -19 31 0
19 -27 -35 0
-2 -5 -8 0
16 -22 -34 0
24 40 -49 0
7 27 -40 0
-17 -43 -46 0
23 26 -50 0
2 3 49 0
-16 -27 -41 0
-7 -10 46 0
-8 15 50 0
-11 29 -32 0
-2 15 41 0
-5 -19 -45 0
17 -31 -49 0
11 21 -27 0
11 -27 33 0
-7 9 -14 0
22 29 41 0
10 38 41 0
-5 -12 -14 0
-31 38 -43 0
-15 -36 38 0
1 18 37 0
3 13 15 0
-23 -35 -40 0
-31 -44 -47 0
-2 30 -33 0
-9 29 -33 0
4 43 -49 0
-22 29 32 0
27 -37 38 0
-7 -32 34 0
5 -6 35 0
1 13 -38 0
-14 29 41 0
-38 40 47 0
-14 -21 -37 0
25 -38 44 0
2 10 -26 0
-18 -39 -46 0
-6 -15 -32 0
17 -29 48 0
2 18 24 0
28 -33 40 0
-3 14 24 0
-22 -23 41 0
39 41 45 0
6 -11 38 0
-10 -20 47 0
18 -36 -48 0
-9 29 -41 0
-22 23 -28 0
-4 -21 28 0
-9 -13 29 0
19 -23 -48 0
27 -29 47 0
-36 -39 -45 0
-7 14 24 0
-9 35 -43 0
1 -34 45 0
-3 6 50 0
11 12 -40 0
2 -23 -47 0
-25 -33 -40 0
12 -40 -48 0
6 -30 42 0
-10 -22 -50 0
32 -40 44 0
-15 -22 -37 0
-18 -22 -30 0
17 34 35 0
10 -23 24 0
-1 -20 -44 0
-16 -19 43 0
-12 -37 47 0
3 -5 -18 0
19 -20 -45 0
-12 -36 -42 0
15 -18 -25 0
-10 18 28 0
-32 -37 -50 0
20 -48 -50 0
3 -18 23 0
-2 28 -49 0
-10 -15 -27 0
-13 -18 -22 0
-1 -17 47 0
-21 -23 -34 0
-25 -37 48 0
21 31 39 0
-23 32 -39 0
8 29 -39 0
-16 -41 42 0
7 19 -46 0
-5 21 40 0
16 -18 -38 0
6 27 31 0
-3 47 -49 0
-3 -8 47 0
-7 -31 -32 0
-30 41 49 0
2 -17 29 0
2 -25 35 0
-2 -16 38 0
5 -24 32 0
5 -39 42 0
28 46 50 0
-3 -38 -48 0
-37 46 -47 0
13 26 -38 0
-9 13 -37 0
-11 14 -42 0
-7 -13 18 0
25 33 34 0
2 -24 -42 0
-24 -30 -38 0
13 -18 36 0
36 -40 43 0
-12 -14 -35 0
-10 -21 -39 0
6 -31 -36 0
-42 43 -49 0
15 19 27 0
22 36 -45 0
-14 -33 48 0
-5 39 -43 0
3 -14 24 0
9 -12 17 0
7 15 -30 0
1 -33 50 0
-12 -14 24 0
14 -27 50 0
5 -30 -47 0
-7 23 32 0
40 42 -46 0
11 36 49 0
12 -22 -43 0
20 39 -40 0
-11 -15 23 0
17 19 44 0
13 -25 34 0
13 29 31 0
23 -39 -40 0
-5 7 -28 0
9 -16 27 0
-4 13 15 0
-4 29 -46 0
19 23 -41 0
-9 -34 -47 0
-6 29 -39 0
-19 -36 44 0
-21 -23 -37 0
9 -17 -30 0
-3 -13 -25 0
17 -43 49 0
-1 -12 41 0
-11 -32 -43 0
-13 22 45 0
-23 24 -37 0
-4 -33 37 0
-10 25 39 0
-3 -23 44 0
11 13 -35 0
-42 -45 -48 0
5 29 43 0
16 20 26 0
9 37 -39 0
-1 -43 44 0
-14 35 45 0
-1 -16 48 0
10 18 -22 0
-12 19 34 0
13 -42 44 0
2 4 9 0
24 30 33 0
-13 -21 -29 0
9 16 35 0
16 -42 -44 0
7 -9 46 0
2 -19 38 0
2 29 -46 0
-5 35 -49 0
1 13 -41 0
-16 31 40 0
8 36 50 0
23 33 -47 0
17 -22 -33 0
10 33 -40 0
-14 38 49 0
48 -49 50 0
21 23 40 0
-10 37 -39 0
8 11 42 0
-13 -45 -50 0
-6 35 48 0
-24 -26 -36 0
-14 -21 -45 0
16 20 27 0
-42 46 50 0
24 -38 47 0
13 -40 -49 0
2 3 -43 0
-24 -42 -43 0

