c Generated by rand.py 75 375 3 451270
c Generator source: https://github.com/aaw/sat/blob/master/gen/rand.py
p cnf 75 375
8 44 -45 0
-8 -13 -55 0
4 27 -33 0
-37 -60 -69 0
5 37 -42 0
2 -40 -56 0
16 -49 60 0
15 21 -51 0
-46 -67 -69 0
-5 -29 67 0
-30 31 67 0
-7 20 26 0
-41 -53 -55 0
18 -40 -67 0
15 -70 -73 0
7 -18 -38 0
2 -29 -43 0
-8 -59 61 0
22 -30 51 0
9 -29 31 0
13 -22 -67 0
4 -44 66 0
-26 60 -64 0
-8 40 44 0
43 -48 -59 0
-35 41 44 0
-23 -28 51 0
24 -39 -70 0
-24 39 43 0
-10 -12 -33 0
9 -27 70 0
-1 23 -26 0
13 -34 -62 0
-18 19 70 0
-42 -66 68 0
26 -30 -48 0
-19 -57 68 0
41 -55 -59 0
14 22 -38 0
19 -34 -75 0
-29 -43 -58 0
8 -18 -51 0
2 29 47 0
-9 26 44 0
59 66 -73 0
19 -23 -58 0
-14 -17 -45 0
69 -71 74 0
-8 11 -29 0
-28 44 65 0
-9 63 -72 0
17 -65 70 0
-24 -54 72 0
30 55 -68 0
-14 -39 59 0
-37 -51 -70 0
-24 -28 47 0
9 -27 31 0
-38 56 70 0
5 16 -39 0
-13 26 31 0
-20 23 27 0
-16 -33 -34 0
-11 -30 -72 0
9 -17 -39 0
-5 -15 -70 0
-22 -57 63 0
25 30 -71 0
-10 52 -69 0
-8 -58 -61 0
18 -41 69 0
-30 -59 -66 0
-11 -16 42 0
-11 34 45 0
-19 -48 -53 0
23 -46 -62 0
-31 -52 60 0
26 51 -60 0
-13 -15 30 0
28 31 74 0
16 -55 70 0
-32 41 44 0
-29 37 56 0
-3 -23 61 0
4 -16 -46 0
5 -6 -65 0
15 43 54 0
41 -45 -48 0
-24 -61 -64 0
25 -36 -63 0
29 -55 -64 0
-2 -9 44 0
30 65 -71 0
-6 -15 -55 0
-65 69 71 0
-20 -45 -53 0
12 -29 -51 0
-16 -41 -53 0
-39 48 58 0
-11 -58 68 0
11 49 -52 0
-36 -48 62 0
8 25 43 0
-15 57 -66 0
-38 45 -61 0
-23 67 -68 0
-23 -55 60 0
22 23 -41 0
2 -15 -39 0
-30 -36 -66 0
14 -27 35 0
-23 -30 65 0
16 -22 26 0
-13 -28 -34 0
9 29 -33 0
16 -25 -27 0
1 -21 39 0
-14 -30 -75 0
3 6 -35 0
-18 -61 -64 0
9 20 47 0
49 -54 -60 0
-6 -12 -18 0
29 -57 66 0
3 -11 59 0
-3 14 52 0
48 -51 70 0
-30 50 -72 0
-11 -49 51 0
-3 4 13 0
-5 -39 -41 0
8 38 65 0
-38 -40 -73 0
-14 41 -59 0
1 19 60 0
4 -22 -53 0
20 -22 68 0
58 63 71 0
37 39 51 0
-6 -17 -70 0
20 -22 62 0
34 67 -73 0
-31 60 -64 0
-10 -17 -51 0
36 70 -75 0
19 20 -42 0
-26 30 -35 0
-2 3 -52 0
-4 -32 66 0
-5 33 -40 0
-11 49 61 0
5 -36 65 0
7 51 66 0
-58 69 -75 0
27 44 75 0
10 31 -39 0
-10 32 -49 0
32 50 -55 0
-37 63 -65 0
26 -38 -64 0
-25 -55 -73 0
-41 -54 69 0
-32 -42 -55 0
-17 20 -68 0
22 -34 64 0
-29 -60 -72 0
-7 -50 56 0
34 -59 73 0
-22 -57 -69 0
6 -30 -53 0
22 34 -42 0
21 -23 55 0
17 45 73 0
-9 40 -54 0
-5 22 -27 0
-32 -50 55 0
5 -17 48 0
-56 60 69 0
-5 42 51 0
-20 34 51 0
-11 24 47 0
21 56 73 0
-1 -5 30 0
21 22 42 0
-9 32 67 0
-9 29 -42 0
4 -32 74 0
-24 34 -51 0
-12 -25 -70 0
-38 44 75 0
8 -21 58 0
30 34 -54 0
-21 -23 -58 0
-8 -12 -72 0
20 25 35 0
34 45 -50 0
-1 34 37 0
-3 -44 -64 0
12 35 51 0
-46 52 61 0
-40 -45 -68 0
-27 55 64 0
-29 43 57 0
-8 49 -60 0
-10 -37 58 0
-23 -53 -68 0
13 -34 -67 0
-8 -18 59 0
-1 43 -71 0
32 -37 -54 0
66 -68 -72 0
-33 -38 -54 0
4 38 -53 0
9 42 -53 0
-33 41 -46 0
27 44 -55 0
48 -72 -74 0
-18 20 -25 0
-31 32 -43 0
-1 22 -43 0
-53 62 -68 0
-52 -53 54 0
-6 48 57 0
-15 -32 49 0
-18 -47 -58 0
-9 -21 33 0
20 -24 -61 0
19 21 60 0
28 -51 53 0
-10 -51 69 0
-23 -35 69 0
30 -58 60 0
-22 26 74 0
-12 13 -36 0
3 -6 -35 0
-51 63 -73 0
16 -30 43 0
14 -19 69 0
47 -52 74 0
-5 -39 56 0
12 43 -59 0
-25 37 -39 0
57 60 75 0
1 -2 4 0
-3 -15 51 0
16 -46 -48 0
29 68 -69 0
27 35 -56 0
-5 65 -68 0
34 37 54 0
11 -44 55 0
-54 58 65 0
12 23 44 0
-21 -52 58 0
14 -33 -54 0
11 65 71 0
-9 -19 -54 0
-40 -47 66 0
-1 18 21 0
4 -20 -25 0
1 -3 10 0
-11 -34 62 0
11 19 24 0
-10 -15 68 0
10 -52 55 0
13 41 54 0
-38 39 -52 0
-6 -8 -48 0
26 28 -66 0
5 17 -72 0
-12 -15 25 0
-15 -61 65 0
-4 66 -68 0
13 -49 -60 0
13 -49 -68 0
-17 26 -27 0
2 29 63 0
8 -27 -54 0
32 36 44 0
-26 -34 43 0
-13 -23 46 0
-1 -54 -65 0
-22 -49 74 0
45 -57 -59 0
-20 -26 -46 0
-8 -50 -59 0
20 -42 69 0
20 47 56 0
1 63 72 0
37 63 72 0
3 -21 61 0
-13 -15 19 0
-15 -18 55 0
4 15 -56 0
-13 -45 70 0
4 -14 17 0
-44 55 -61 0
-30 32 48 0
34 66 -68 0
1 61 67 0
19 36 -49 0
51 52 62 0
-49 58 -59 0
59 66 73 0
16 17 23 0
13 36 -64 0
-27 45 48 0
11 45 -73 0
49 61 62 0
12 -20 31 0
-15 51 -52 0
-18 51 -66 0
22 -25 -54 0
9 47 -66 0
-1 -10 69 0
49 -52 74 0
-6 29 58 0
-17 47 51 0
-1 17 71 0
36 -57 75 0
24 46 52 0
11 -26 36 0
-8 30 -36 0
-25 55 63 0
14 18 49 0
-28 43 -67 0
-8 17 -53 0
47 -55 74 0
-22 34 52 0
25 -26 36 0
-27 -57 -71 0
-23 -38 49 0
19 28 -68 0
7 -18 24 0
12 13 37 0
15 -26 74 0
16 -43 -49 0
-1 -23 -65 0
-14 -46 -62 0
-31 -39 -54 0
44 47 -71 0
12 38 43 0
29 -70 74 0
-27 33 -58 0
-18 -27 34 0
-7 -19 -65 0
-11 17 -52 0
9 -29 -68 0
-4 -15 73 0
6 38 61 0
-1 -31 75 0
11 40 73 0
10 -27 -33 0
-21 27 44 0
-40 -49 55 0
51 71 75 0
-13 -42 67 0
-21 -40 -51 0
32 -61 65 0
23 64 68 0
-28 30 -58 0
71 -73 75 0
-34 -39 -54 0
2 34 37 0
-32 48 -66 0
28 -32 -44 0
-30 -36 44 0
10 -20 35 0
-33 36 -44 0
-41 -56 72 0
10 -49 -64 0
48 52 -59 0
-2 56 57 0
-45 -59 60 0
-27 46 -73 0

