c Generated by rand.py 75 375 3 827909
c Generator source: https://github.com/aaw/sat/blob/master/gen/rand.py
p cnf 75 375
-9 19 34 0
-3 -17 -60 0
43 -57 75 0
-11 27 59 0
-23 -53 58 0
-8 41 61 0
22 -26 75 0
-1 -39 -75 0
-11 -63 -74 0
20 49 51 0
21 -30 57 0
-27 46 -60 0
37 56 57 0
-28 36 -48 0
2 38 -69 0
-37 62 74 0
36 63 74 0
38 56 -68 0
14 24 -51 0
1 -12 52 0
-24 31 -54 0
-33 35 47 0
3 -27 -70 0
-2 -14 56 0
-32 -66 -70 0
15 36 -75 0
22 39 42 0
-10 -20 -51 0
25 30 -75 0
-28 -41 54 0
27 53 -64 0
11 -40 51 0
-47 59 -75 0
-20 31 41 0
4 58 63 0
31 -45 -65 0
-14 -36 -49 0
43 -46 50 0
-27 -42 -48 0
-56 68 69 0
-6 22 -34 0
13 39 -74 0
-51 -62 -65 0
44 63 67 0
-3 63 70 0
-36 -40 -70 0
-8 34 61 0
13 -35 -45 0
-57 -69 71 0
-12 -27 -42 0
8 -32 74 0
2 33 -73 0
36 -58 -71 0
-4 -21 43 0
15 62 -69 0
44 66 -74 0
35 -42 49 0
-14 -41 67 0
-44 -54 59 0
-5 -59 -73 0
18 -37 -65 0
-2 -3 8 0
4 -55 69 0
50 -68 70 0
11 70 -75 0
5 44 -53 0
-3 14 -46 0
26 64 -75 0
-21 -31 44 0
-31 39 72 0
9 20 46 0
47 62 74 0
19 66 -74 0
7 -65 -71 0
-9 -20 33 0
-47 -52 -64 0
-14 38 -40 0
-3 -29 37 0
-26 -42 51 0
40 61 71 0
5 8 -51 0
3 -33 -39 0
-2 -12 24 0
-7 -46 -68 0
19 -26 -56 0
21 35 41 0
-56 63 -74 0
-14 30 -37 0
30 53 66 0
-26 -54 67 0
23 52 66 0
-6 -62 66 0
-28 -40 66 0
20 32 -66 0
-9 28 55 0
15 19 -49 0
-34 42 -45 0
11 -32 -60 0
-19 27 64 0
21 42 -43 0
-8 -27 -49 0
21 -23 28 0
49 55 -73 0
12 60 -69 0
4 7 37 0
-5 -50 -71 0
2 69 75 0
-10 61 73 0
12 30 60 0
5 -7 -75 0
29 50 -73 0
-4 -21 -73 0
38 -46 69 0
-32 -60 -64 0
-14 21 -65 0
-18 31 -70 0
22 57 74 0
11 -25 31 0
11 35 56 0
20 -43 56 0
35 -50 -65 0
-16 -38 46 0
43 -44 -55 0
2 -10 -51 0
19 22 34 0
10 -22 -29 0
-7 -49 -73 0
59 -67 -69 0
5 -36 41 0
-22 60 63 0
17 -24 -34 0
-10 -44 58 0
-15 17 55 0
37 -48 74 0
-5 16 24 0
57 60 70 0
-4 -8 73 0
26 34 -48 0
32 -61 -68 0
43 62 75 0
-41 -42 51 0
-38 64 72 0
-29 -55 -62 0
1 -19 47 0
-47 -68 -71 0
45 46 72 0
3 19 -61 0
8 33 54 0
20 -26 -68 0
-5 -37 45 0
-30 -47 -49 0
-33 -55 -63 0
-4 -50 66 0
-6 14 -23 0
32 34 63 0
-18 -43 -71 0
4 24 -59 0
-3 50 -75 0
-28 -30 46 0
-10 -16 69 0
5 -9 -74 0
-1 37 58 0
7 -13 27 0
18 -20 -72 0
-26 48 -60 0
18 -31 -75 0
4 -46 64 0
-15 68 72 0
7 -17 32 0
-56 61 72 0
-54 60 71 0
-12 -16 65 0
-40 46 -59 0
44 73 75 0
15 -18 -50 0
23 -64 66 0
18 -54 -73 0
-6 -9 57 0
-18 -71 74 0
9 24 63 0
-4 25 39 0
-17 20 -70 0
-5 24 44 0
30 41 -51 0
12 23 -55 0
26 43 70 0
4 -61 68 0
27 -47 -73 0
-1 -2 -56 0
-2 -38 67 0
21 46 63 0
-61 70 -71 0
2 -63 -65 0
-44 -47 -55 0
13 56 -59 0
-17 25 -51 0
30 -46 -50 0
-10 -48 73 0
11 -13 26 0
-16 38 64 0
-14 37 -38 0
-28 -48 54 0
-9 53 -67 0
-19 -62 -65 0
51 59 -71 0
-20 -52 -55 0
3 39 -55 0
-26 48 -66 0
8 -33 -56 0
35 43 -72 0
-27 -50 62 0
19 -61 75 0
-10 29 -59 0
1 43 71 0
-19 -44 62 0
11 27 32 0
-1 58 -74 0
8 -27 43 0
-14 -43 63 0
9 -43 -70 0
38 -51 -56 0
-6 -14 28 0
-4 -6 -35 0
-13 50 -74 0
-6 -35 59 0
33 57 -70 0
-25 -43 -51 0
-19 30 55 0
-1 -36 -60 0
41 47 68 0
-17 -54 -63 0
40 49 72 0
11 -21 -62 0
6 -20 63 0
-29 34 -39 0
-24 -28 -43 0
18 45 -63 0
4 -25 -56 0
-17 -36 64 0
1 16 17 0
-9 -19 75 0
18 -63 -68 0
-6 45 -66 0
-42 44 -71 0
16 -56 -74 0
-31 34 -49 0
10 55 -71 0
31 -47 -62 0
57 71 75 0
8 57 59 0
25 52 -70 0
6 10 -54 0
-28 -59 63 0
-19 -47 73 0
-7 51 -56 0
-17 -18 -30 0
32 61 64 0
-9 53 57 0
-5 -29 -32 0
-10 22 48 0
27 -28 57 0
-2 8 -34 0
-32 -38 -75 0
4 -33 -66 0
12 -34 -56 0
10 -47 -61 0
-5 6 -53 0
50 58 75 0
50 54 -57 0
13 -48 -70 0
-29 -38 -72 0
12 52 -63 0
-27 -39 49 0
-7 58 63 0
28 56 -70 0
31 33 -74 0
-18 -37 62 0
11 15 -38 0
1 -41 48 0
-19 -37 -67 0
-21 42 -71 0
26 -31 -49 0
8 -57 60 0
-11 28 -55 0
-35 -51 -72 0
24 -29 -70 0
-2 -61 -63 0
-14 41 53 0
-17 -31 -65 0
38 67 -72 0
9 25 -48 0
57 -61 68 0
25 46 61 0
16 -21 52 0
17 33 -66 0
-34 -59 69 0
16 -29 47 0
-44 -69 -71 0
-1 -31 -59 0
9 57 58 0
16 17 41 0
-45 57 67 0
-62 -66 69 0
-7 41 59 0
-6 29 -35 0
-5 -37 -63 0
-11 -48 72 0
29 -36 55 0
26 -54 -67 0
-7 -26 70 0
24 -30 -65 0
-14 -33 -73 0
1 -9 -51 0
-2 -17 60 0
-11 -20 73 0
3 15 74 0
36 -55 72 0
-18 20 -31 0
-45 -50 -66 0
32 53 73 0
17 -41 -54 0
13 22 -37 0
-2 -55 60 0
7 34 37 0
36 47 68 0
9 -54 -57 0
19 -33 67 0
2 43 -72 0
-8 -28 -72 0
-32 56 73 0
5 -10 -42 0
26 43 -73 0
-42 -63 71 0
32 33 57 0
16 24 -58 0
7 -13 -47 0
-22 -58 -70 0
15 -27 -69 0
20 35 70 0
44 -61 72 0
-39 -56 -68 0
17 -37 -68 0
-29 38 -75 0
9 14 -67 0
28 -49 69 0
-37 45 -63 0
34 -60 71 0
18 -39 68 0
3 26 -58 0
-3 -48 -69 0
27 42 -71 0
-28 -48 74 0
-37 56 65 0
-2 -44 72 0
-24 73 75 0
-3 -9 35 0
-25 40 -63 0
-6 16 43 0
41 -61 65 0
-17 -36 -57 0
29 63 -69 0
43 53 -69 0
27 -35 -55 0
-7 -24 -43 0
-11 -21 -34 0
8 -11 22 0
-3 -10 -63 0
-5 -37 -58 0
-26 -68 -71 0
-23 38 -59 0
8 12 53 0
-17 -32 71 0
11 47 75 0
12 15 -59 0
-14 -31 -52 0

