c Generated by rand.py 100 500 3 739952
c Generator source: https://github.com/aaw/sat/blob/master/gen/rand.py
p cnf 100 500
-6 10 -14 0
-45 53 89 0
-28 54 -98 0
-19 -36 48 0
15 68 -94 0
-3 -67 71 0
57 81 85 0
61 81 94 0
-22 -52 97 0
-14 -48 -91 0
67 72 76 0
-5 6 17 0
-8 83 99 0
35 -39 85 0
79 -81 -96 0
-29 -86 -100 0
24 -43 -66 0
32 52 -72 0
14 -49 -82 0
33 62 -82 0
26 -51 -99 0
12 39 69 0
-56 -67 81 0
-37 -47 88 0
39 -59 60 0
-24 64 -94 0
-11 32 98 0
48 73 -98 0
30 55 82 0
-12 -38 -53 0
-43 -66 -76 0
-9 -10 28 0
-1 -42 -82 0
-6 31 -94 0
8 -52 64 0
3 -36 -88 0
-13 -37 93 0
-24 -52 -71 0
-8 -63 -75 0
-44 46 53 0
-17 19 -47 0
68 70 -99 0
16 68 -96 0
-13 -33 86 0
3 -9 43 0
11 -41 -50 0
5 12 72 0
53 -74 -95 0
11 33 -34 0
10 -41 78 0
42 -84 87 0
-39 -48 68 0
-4 6 -37 0
-22 76 -95 0
-45 -91 97 0
-28 -63 -77 0
2 40 73 0
27 51 -63 0
-52 -88 -92 0
-44 -50 81 0
-45 58 -93 0
53 -82 88 0
41 45 98 0
57 -68 86 0
32 -35 -75 0
48 65 -70 0
4 39 -58 0
59 -70 79 0
-21 27 -84 0
-35 50 -59 0
31 -64 88 0
-51 59 80 0
-6 46 -51 0
5 -85 -97 0
29 -36 -88 0
-2 -18 -95 0
-9 57 84 0
-13 16 17 0
31 77 -83 0
8 10 33 0
-51 -70 -81 0
-4 9 25 0
-28 40 56 0
18 42 71 0
49 -81 83 0
-44 -64 92 0
-33 -46 -48 0
14 -21 40 0
23 -39 -51 0
28 -30 55 0
29 -49 68 0
-34 -73 -79 0
-14 -31 60 0
-12 49 56 0
-35 -89 -93 0
42 48 -63 0
-36 -83 94 0
-39 -41 60 0
-54 -73 75 0
-11 26 33 0
11 -44 -80 0
-1 -51 66 0
-5 71 96 0
27 74 94 0
81 95 98 0
12 29 96 0
18 53 -76 0
-28 73 -75 0
5 -11 -36 0
-3 6 -93 0
-23 -48 98 0
-30 -48 74 0
-45 -69 -95 0
3 28 65 0
-10 -23 73 0
29 48 -61 0
-11 38 94 0
23 -39 52 0
-45 58 88 0
37 -61 -94 0
20 -71 -79 0
-11 -22 -82 0
13 31 -68 0
-15 49 53 0
6 29 62 0
-50 -57 69 0
-7 17 28 0
10 -65 84 0
-10 -87 -93 0
-31 55 -74 0
11 15 32 0
3 -10 28 0
-10 -24 81 0
-4 -13 64 0
-10 28 50 0
14 44 -59 0
29 -47 -91 0
5 -34 60 0
-9 23 -33 0
9 10 75 0
10 12 81 0
-11 64 74 0
-40 43 -66 0
46 69 -86 0
-39 -98 -100 0
30 58 -61 0
5 -28 78 0
15 94 97 0
20 45 71 0
-33 42 72 0
6 -64 -96 0
-3 20 -83 0
41 67 -86 0
-9 -27 -56 0
-1 -45 -49 0
2 -40 79 0
-47 52 97 0
-9 22 -66 0
-50 -93 -96 0
4 39 57 0
37 -59 -60 0
22 76 -77 0
-9 61 -83 0
-11 54 91 0
-38 -79 81 0
-14 -38 63 0
3 38 39 0
-27 -48 -63 0
32 43 -59 0
24 27 -30 0
-10 -45 -75 0
-27 -68 -96 0
-5 -46 79 0
-5 27 43 0
-71 -84 -98 0
-29 37 62 0
-1 -8 76 0
12 32 -81 0
27 -43 -84 0
47 79 -96 0
3 22 33 0
41 71 81 0
45 -65 -67 0
64 -88 -89 0
-33 38 67 0
-24 76 -87 0
35 -37 -40 0
31 69 73 0
5 -81 85 0
-31 -51 69 0
37 -64 66 0
-5 -18 -87 0
-39 73 -86 0
-6 -30 -72 0
-1 -34 -52 0
12 -26 -47 0
-43 46 -49 0
-4 31 -66 0
20 54 -74 0
1 -17 -31 0
-56 65 -100 0
46 47 79 0
-32 68 -75 0
-66 -82 -90 0
-9 -42 83 0
-44 75 94 0
-9 -37 73 0
5 74 -99 0
-11 31 75 0
32 33 82 0
-52 68 100 0
-60 -84 -100 0
-20 -78 -87 0
42 -61 -65 0
40 -63 -82 0
-6 -10 -84 0
-27 64 83 0
20 -42 -60 0
12 -36 -77 0
14 -21 27 0
19 44 -87 0
-21 -70 -81 0
20 -27 -56 0
9 20 66 0
-32 -53 65 0
-1 10 -24 0
-57 74 93 0
-56 65 72 0
-3 -53 94 0
68 85 91 0
19 30 -94 0
-7 -39 -78 0
-14 -26 98 0
-1 -7 34 0
-61 92 97 0
-53 82 83 0
3 -19 -95 0
-41 59 68 0
-18 34 96 0
12 -44 68 0
12 16 -43 0
4 7 60 0
44 77 -100 0
-24 -39 88 0
-39 64 76 0
3 86 -99 0
9 -33 52 0
-6 -47 94 0
-1 25 -82 0
-68 -88 89 0
-6 -73 78 0
10 -36 -94 0
8 37 -88 0
-5 31 99 0
-41 -45 76 0
56 -72 -73 0
5 36 89 0
-4 -47 76 0
-6 31 83 0
40 89 -95 0
-27 -79 88 0
-27 62 -71 0
68 91 -94 0
35 -47 -61 0
-18 29 65 0
51 -59 -61 0
10 24 66 0
-21 55 88 0
-9 54 -56 0
-4 -74 -97 0
-7 -11 -18 0
-19 -31 -39 0
5 39 -59 0
-14 29 -77 0
1 88 -89 0
-8 27 70 0
54 66 85 0
47 62 -69 0
-7 54 -76 0
-9 -38 -60 0
-16 65 -69 0
-19 28 -58 0
6 -16 -24 0
18 34 -71 0
-6 33 -73 0
-16 -27 62 0
-36 87 89 0
-53 86 -98 0
-1 -81 92 0
17 -75 90 0
13 -86 -88 0
29 85 98 0
23 -35 74 0
-7 94 100 0
-9 53 -71 0
38 -84 -90 0
-25 51 73 0
47 -74 -89 0
11 68 72 0
-37 -82 83 0
-10 -24 -93 0
35 82 94 0
-21 -47 91 0
-21 57 -94 0
-6 -15 -53 0
-16 -83 -95 0
7 -12 -50 0
-22 76 -86 0
-3 -22 -70 0
45 -70 -81 0
9 -91 97 0
-37 70 -76 0
-19 -33 80 0
-8 -16 -32 0
6 -14 84 0
14 -63 -100 0
71 -83 -91 0
-30 80 92 0
-32 -50 65 0
10 58 -69 0
6 93 -95 0
-46 55 -66 0
63 66 -71 0
15 54 -86 0
-59 65 67 0
41 -52 80 0
21 56 -87 0
14 -54 90 0
4 -35 50 0
14 34 -95 0
34 79 99 0
-18 -77 94 0
4 -9 87 0
26 28 -42 0
-23 70 -76 0
-12 14 -20 0
38 -69 100 0
-21 26 66 0
-37 -45 71 0
-14 -37 -83 0
-6 71 81 0
25 45 50 0
-9 -10 -82 0
-37 47 75 0
-18 -23 80 0
9 49 -79 0
-6 36 42 0
4 -19 -38 0
-20 -33 -98 0
-7 -30 33 0
37 48 77 0
18 62 84 0
-14 47 -86 0
-2 22 38 0
-59 61 -70 0
-10 54 -95 0
24 -63 77 0
24 74 -81 0
33 64 82 0
-36 -45 54 0
31 74 -85 0
45 -96 97 0
30 -32 -87 0
-60 -64 93 0
16 -56 -74 0
50 88 -100 0
49 62 72 0
-16 41 -83 0
48 -56 -76 0
-26 -34 39 0
1 39 98 0
-62 -64 70 0
-9 36 84 0
-27 44 72 0
-23 -47 88 0
-7 -8 30 0
-58 96 98 0
-75 80 -90 0
26 32 -52 0
36 -54 55 0
-12 85 -98 0
8 -15 63 0
17 -26 -47 0
26 49 -86 0
-4 27 60 0
23 -25 -65 0
-54 66 99 0
-49 82 -95 0
-74 87 -89 0
-19 -35 -88 0
21 -34 91 0
34 42 -97 0
-19 74 88 0
24 -26 86 0
57 -96 -99 0
-14 -80 92 0
23 53 -62 0
-50 -71 -78 0
40 -57 61 0
-14 25 -28 0
-19 22 -81 0
-3 -74 -95 0
27 -34 -77 0
19 -28 -74 0
-42 50 75 0
-13 -16 55 0
-31 51 88 0
23 -37 84 0
24 -31 -36 0
-46 78 89 0
-41 70 86 0
-14 -19 39 0
-46 57 63 0
12 32 -91 0
18 -65 -95 0
53 58 79 0
-14 32 97 0
-3 -44 74 0
18 73 75 0
-12 -25 75 0
41 51 86 0
17 -25 31 0
-59 -79 82 0
25 -26 69 0
46 -79 -82 0
38 -76 90 0
-9 -12 -27 0
-46 -54 -80 0
26 31 86 0
47 -86 96 0
22 -48 67 0
1 -28 -35 0
10 -65 70 0
52 -94 -100 0
-17 -33 79 0
-6 -7 41 0
12 43 -93 0
34 -75 -88 0
-25 -43 -94 0
40 61 90 0
22 67 -73 0
39 -41 -100 0
30 -57 -65 0
-5 65 96 0
-46 -49 -82 0
27 -30 -55 0
-27 -73 -76 0
-40 -59 -81 0
9 43 -63 0
-30 67 92 0
-6 24 47 0
-54 63 -86 0
16 -59 -97 0
20 29 48 0
-28 -87 -95 0
-7 50 97 0
28 -34 -80 0
10 78 -88 0
-23 -26 41 0
19 55 62 0
25 -26 -84 0
-2 6 -72 0
-31 41 78 0
29 -86 -96 0
-42 -77 -100 0
-31 86 -98 0
-23 -89 98 0
25 41 -92 0
-28 51 82 0
28 -47 100 0
-12 33 -82 0
48 52 -90 0
36 -54 -61 0
32 43 -91 0
-6 21 -76 0
14 -63 -80 0
4 65 100 0
-43 82 87 0
-12 86 -91 0
52 -80 89 0
6 12 92 0
4 5 84 0
61 -96 99 0
-6 50 64 0
-35 63 89 0
20 52 77 0
-27 -62 -84 0
-30 38 68 0
-14 -23 -36 0
-50 -57 90 0
-8 -59 86 0
-5 -21 30 0
18 -29 -46 0
-1 -43 -87 0
69 75 88 0
20 -29 76 0
56 75 -94 0
23 59 60 0
6 12 -51 0
-15 -30 -76 0

