c Generated by rand.py 50 250 3 886167
c Generator source: https://github.com/aaw/sat/blob/master/gen/rand.py
p cnf 50 250
-2 -30 42 0
-4 -32 -38 0
-20 22 39 0
3 -10 -45 0
-8 -19 -30 0
19 -25 -31 0
-11 45 -46 0
2 -9 -31 0
2 7 -22 0
-17 30 37 0
-4 -6 39 0
-8 -9 -43 0
14 20 23 0
27 -40 -46 0
-5 11 -29 0
-28 31 38 0
-14 23 -33 0
-27 30 -42 0
-24 -43 -47 0
-12 -33 35 0
-9 10 -17 0
7 -17 -29 0
-8 29 38 0
-9 -17 45 0
5 18 -37 0
-6 15 50 0
-5 -37 -48 0
-4 35 39 0
1 10 50 0
-13 22 -48 0
25 -26 -36 0
-6 17 50 0
8 11 31 0
-5 -22 -27 0
15 -17 30 0
-7 -19 25 0
-6 11 33 0
-11 -24 29 0
17 -40 -46 0
-5 -34 47 0
1 24 25 0
16 -27 28 0
-2 -8 -49 0
7 -11 47 0
10 -36 -37 0
-5 22 43 0
7 38 -47 0
2 5 -20 0
7 -34 -36 0
7 22 -35 0
-1 10 -35 0
3 9 -11 0
27 -39 47 0
-25 -26 -33 0
3 18 -28 0
20 -35 -40 0
-1 6 -30 0
8 -11 -31 0
-14 23 -25 0
-6 25 38 0
27 30 50 0
-2 8 12 0
-20 -27 -49 0
-6 -45 -47 0
1 15 -49 0
-12 41 -44 0
5 -19 31 0
-6 -37 -43 0
-19 -28 36 0
12 -14 -40 0
8 9 14 0
-10 -21 44 0
-42 43 -49 0
4 9 38 0
-2 -6 -13 0
13 16 -33 0
-6 9 -25 0
11 -12 15 0
-28 43 45 0
-13 -17 40 0
24 -30 35 0
11 17 -36 0
-1 -44 49 0
-31 33 -36 0
-9 -17 46 0
-4 -33 -48 0
20 28 48 0
15 33 34 0
28 -34 47 0
-10 -12 -28 0
12 -34 -37 0
-1 -18 -49 0
5 8 34 0
-3 9 39 0
-9 -19 -27 0
-36 -47 -48 0
21 30 43 0
-11 13 -43 0
-17 -18 -26 0
30 -44 46 0
-14 -22 38 0
13 33 -37 0
29 -32 49 0
1 13 -21 0
-18 -33 48 0
-12 -15 47 0
24 25 31 0
5 25 39 0
24 -39 -50 0
17 32 48 0
12 27 43 0
-12 27 47 0
-7 -33 -37 0
-8 38 48 0
-20 -26 -39 0
-33 35 -44 0
-1 -4 17 0
6 -38 47 0
-11 -28 -45 0
12 37 -39 0
-8 15 -18 0
-12 -33 40 0
-6 16 -42 0
-1 3 -15 0
23 -26 -47 0
-27 -32 -36 0
-35 -39 -47 0
-26 36 -45 0
-2 -16 -32 0
17 38 -45 0
11 20 46 0
-16 -24 43 0
-19 -21 -27 0
-10 -40 -47 0
-7 9 18 0
11 -46 47 0
34 48 -50 0
-7 -29 -38 0
-6 -11 -33 0
-20 25 38 0
7 -19 28 0
15 18 33 0
39 42 -49 0
12 -21 -28 0
-32 36 41 0
-9 -38 -45 0
-9 17 -39 0
-15 41 42 0
15 -17 -30 0
10 36 45 0
8 35 38 0
29 36 40 0
-6 39 41 0
-17 19 -41 0
25 34 47 0
3 22 -43 0
10 -40 50 0
2 3 -45 0
-25 -27 28 0
-2 32 -40 0
7 42 -45 0
25 -29 -35 0
-10 25 39 0
-29 31 48 0
-11 -20 -45 0
5 17 -32 0
-16 -29 -50 0
-4 32 40 0
27 39 43 0
7 17 -27 0
-15 -16 -29 0
19 -23 42 0
-14 -34 49 0
7 -16 33 0
-6 -15 -21 0
-9 39 45 0
4 10 23 0
13 -19 -43 0
-1 -21 -43 0
-5 -15 19 0
-4 39 43 0
21 27 49 0
-9 15 49 0
2 -28 -50 0
17 33 -45 0
-5 -6 41 0
-21 -24 -33 0
29 32 43 0
2 16 -44 0
17 -21 -31 0
12 -18 30 0
-7 -32 -39 0
17 24 -46 0
3 -34 41 0
2 44 47 0
-4 -12 -47 0
4 21 -34 0
4 -22 24 0
8 13 17 0
-27 31 -44 0
-1 15 -31 0
28 -31 -35 0
3 -26 32 0
-15 21 -25 0
9 -17 -25 0
-11 -26 38 0
-4 22 48 0
15 42 -45 0
-18 24 -27 0
-5 -20 -45 0
-7 -11 23 0
-3 41 -45 0
21 34 36 0
29 -32 -48 0
6 -20 37 0
-33 46 -50 0
-6 27 -40 0
5 28 -46 0
16 -18 22 0
-8 21 35 0
12 40 -41 0
8 -37 -50 0
-19 20 28 0
-21 33 -37 0
-2 30 35 0
-9 15 -19 0
-16 25 27 0
-15 -17 31 0
9 -10 -15 0
12 23 -50 0
-7 13 -43 0
-26 47 49 0
9 20 -24 0
12 -17 -46 0
18 43 -47 0
37 39 46 0
-13 -32 -35 0
-4 -10 -48 0
7 29 -45 0
-11 -25 -39 0
-7 34 -49 0
-17 -33 34 0
-13 24 31 0
-12 26 36 0
-23 36 45 0
16 27 -32 0
-12 17 30 0
-10 -16 23 0
16 -32 -41 0
-7 14 44 0

