c Generated by rand.py 100 500 3 100968
c Generator source: https://github.com/aaw/sat/blob/master/gen/rand.py
p cnf 100 500
-40 59 -60 0
-42 -65 88 0
13 40 97 0
53 -82 95 0
-33 57 71 0
45 -88 91 0
-11 -20 31 0
77 -88 -100 0
39 -44 64 0
-39 -41 75 0
22 62 -80 0
-36 -69 73 0
7 49 -51 0
-12 42 -91 0
22 74 -99 0
15 -22 35 0
-44 -61 65 0
-53 78 -99 0
-53 -82 -84 0
25 -71 97 0
17 20 -57 0
-17 -65 85 0
-36 38 -55 0
-7 -57 75 0
35 41 -74 0
-18 60 -67 0
14 90 92 0
4 44 -67 0
-28 69 85 0
-15 21 78 0
-5 -18 -30 0
-3 -36 70 0
-42 -57 76 0
-36 -79 80 0
-48 -69 89 0
-44 -59 -62 0
-35 -57 -98 0
-24 -36 -80 0
9 18 -39 0
-20 -89 -96 0
5 -20 -72 0
27 -43 95 0
-22 63 95 0
84 95 -98 0
10 -15 43 0
5 76 88 0
64 -66 -71 0
3 44 76 0
-24 30 56 0
60 62 -99 0
-55 72 84 0
-43 94 98 0
37 -57 90 0
1 -18 33 0
6 80 -97 0
-29 -64 82 0
-9 55 79 0
28 -45 -67 0
79 85 96 0
19 26 40 0
13 -14 -61 0
-19 -46 47 0
-76 81 -93 0
7 31 -47 0
29 -80 97 0
-9 66 80 0
-66 76 -81 0
35 -38 41 0
-43 51 77 0
29 69 -88 0
-61 -85 -100 0
-6 53 91 0
34 40 -97 0
-13 43 -71 0
17 -44 -65 0
12 51 90 0
-7 -40 67 0
-67 70 98 0
-19 -53 -98 0
-1 30 -45 0
3 5 39 0
81 93 100 0
-39 61 -92 0
23 31 -100 0
4 24 58 0
41 -81 -83 0
10 34 82 0
-4 29 -65 0
33 77 92 0
-32 -50 59 0
-1 4 -27 0
-7 21 -91 0
25 -54 -80 0
42 -55 -99 0
59 60 -90 0
-9 -12 -66 0
-51 -90 95 0
-18 -28 54 0
-63 74 94 0
-14 -94 98 0
-15 -83 84 0
-7 42 -49 0
11 16 -60 0
4 74 -77 0
-15 26 72 0
-11 14 -52 0
34 -80 82 0
6 -30 37 0
13 -53 57 0
-25 26 98 0
20 44 45 0
43 48 -88 0
-58 83 -93 0
-14 -50 87 0
-47 -48 91 0
59 -60 84 0
-5 24 -63 0
3 26 42 0
9 -36 76 0
-22 37 -64 0
46 53 94 0
-2 42 -82 0
9 -76 -88 0
21 -46 78 0
-28 37 -68 0
-12 13 -23 0
-30 -36 62 0
-25 -50 -74 0
-54 66 -94 0
-15 69 -76 0
37 64 79 0
59 -64 77 0
-2 -56 99 0
10 -63 -83 0
-44 -54 -93 0
-2 11 20 0
-44 -71 85 0
56 -82 88 0
76 -80 -100 0
-25 -35 -60 0
17 -58 -85 0
9 -20 31 0
-63 78 90 0
29 62 81 0
-22 60 -99 0
14 24 37 0
-32 49 -92 0
-46 -58 88 0
17 49 86 0
24 48 -81 0
-28 -47 -72 0
20 -34 -99 0
-22 36 46 0
-13 -20 34 0
-16 42 -45 0
44 -66 -96 0
-9 42 65 0
7 25 66 0
30 33 68 0
-3 -27 -89 0
-69 99 100 0
13 23 -27 0
-6 25 -36 0
-18 26 50 0
-4 73 84 0
23 -70 92 0
-21 -54 95 0
-30 42 78 0
-13 -34 -68 0
29 52 88 0
-26 -64 65 0
-4 37 -38 0
13 62 69 0
-21 73 -91 0
12 55 -97 0
-21 58 -100 0
62 86 94 0
-47 -79 -80 0
-30 -39 93 0
69 -93 -94 0
16 80 100 0
16 48 -77 0
-8 16 -52 0
20 91 -96 0
-17 23 58 0
21 50 -87 0
4 39 43 0
40 -46 73 0
-57 82 99 0
-65 83 91 0
-10 39 73 0
-18 21 67 0
22 45 -91 0
-24 -67 -77 0
-22 87 -94 0
1 -28 38 0
-63 -73 -79 0
6 -42 -74 0
-43 -53 75 0
11 -47 -98 0
-18 39 59 0
20 74 -88 0
-11 -44 -50 0
9 -28 54 0
-11 42 80 0
-54 71 95 0
-17 53 -69 0
-9 14 -93 0
41 -70 -97 0
6 61 67 0
-68 70 85 0
21 43 -71 0
-40 -59 90 0
-14 -64 -85 0
-26 -51 64 0
-24 74 -78 0
17 -68 -90 0
16 -30 -64 0
51 -62 -80 0
-19 42 57 0
-23 34 -39 0
-8 -14 -79 0
1 24 85 0
33 74 -79 0
-18 46 78 0
4 -23 -35 0
6 -64 -93 0
-76 79 89 0
5 16 -22 0
-24 31 38 0
-45 -62 90 0
4 -30 61 0
31 50 -87 0
20 53 -77 0
16 -47 60 0
36 -44 100 0
15 -23 -97 0
57 -58 64 0
-14 76 -92 0
8 -15 -75 0
-20 -55 -63 0
-21 -40 74 0
67 71 -78 0
-12 -84 94 0
16 -29 -96 0
23 62 87 0
25 67 -84 0
-40 43 95 0
-36 -40 51 0
-11 -74 85 0
-67 -91 92 0
-18 -47 82 0
17 -30 70 0
18 38 -90 0
-39 -54 97 0
61 -75 -87 0
-7 21 -35 0
69 75 -96 0
2 15 77 0
-17 93 -95 0
25 -63 67 0
4 -53 67 0
6 -81 89 0
67 -71 -95 0
26 -86 95 0
22 76 96 0
-27 30 -92 0
-42 -49 -58 0
18 29 -38 0
-64 -97 -99 0
-42 -53 88 0
19 -33 -77 0
17 -30 65 0
-25 41 71 0
-29 -68 78 0
-4 9 -65 0
54 80 -92 0
11 -27 -46 0
-20 -47 -86 0
-12 -50 -58 0
-7 -30 78 0
41 69 -96 0
43 -60 100 0
10 36 100 0
47 -50 -70 0
24 -51 -84 0
8 55 74 0
-49 78 -84 0
-50 82 -94 0
1 -32 77 0
-17 46 -68 0
-26 -45 -72 0
36 -37 -55 0
-7 33 -45 0
-13 21 91 0
22 23 70 0
56 -71 -95 0
11 -12 53 0
5 57 -61 0
-14 67 -95 0
13 20 -98 0
36 62 -92 0
34 -43 -82 0
17 -27 49 0
-67 76 -80 0
-3 76 -93 0
11 -61 84 0
42 60 -76 0
1 3 -44 0
-2 -7 -10 0
3 -44 -53 0
-16 85 91 0
23 33 -48 0
-13 -52 -90 0
22 52 -66 0
-26 93 -100 0
-5 -77 95 0
35 91 -93 0
-13 -22 -93 0
-4 -31 96 0
30 34 92 0
-30 56 -93 0
-35 -64 85 0
-1 -23 93 0
16 47 77 0
-6 -27 39 0
-14 67 82 0
-28 -68 81 0
-4 -15 -82 0
-17 32 -62 0
-59 -82 -87 0
45 58 -88 0
44 51 96 0
-43 53 82 0
-24 -86 98 0
-14 30 -83 0
-32 75 93 0
-30 -65 -80 0
-22 -32 100 0
16 62 92 0
20 33 82 0
-25 35 -64 0
34 54 -100 0
20 26 45 0
-28 -65 91 0
-48 -77 -83 0
-9 45 62 0
30 -44 75 0
-32 55 -91 0
48 -68 -95 0
8 16 -53 0
-22 63 88 0
3 -16 35 0
-34 62 82 0
-36 41 85 0
-14 23 -34 0
-11 37 46 0
-13 -17 99 0
1 -26 -84 0
-21 66 71 0
6 47 88 0
-45 -78 -84 0
-18 60 71 0
13 -61 -93 0
-25 42 94 0
-15 -94 95 0
-26 29 84 0
-6 -45 96 0
-14 72 78 0
-29 81 -96 0
74 75 -81 0
-37 -58 69 0
10 -37 -88 0
10 -11 -53 0
35 -80 98 0
-27 -29 41 0
-30 -61 81 0
42 49 60 0
-50 58 67 0
25 47 -88 0
-17 76 -77 0
-23 -51 -58 0
60 -75 78 0
64 77 -93 0
4 69 84 0
43 -45 -95 0
-12 21 -98 0
-24 62 89 0
18 -54 68 0
10 25 68 0
-20 72 -91 0
-54 83 88 0
50 67 -97 0
9 -49 -76 0
23 71 91 0
22 31 -65 0
-15 -47 82 0
1 5 -55 0
-54 -63 -85 0
2 11 32 0
-11 -35 77 0
4 -8 -12 0
-4 21 34 0
91 -97 100 0
-17 70 -90 0
-24 -29 -41 0
51 -82 96 0
-29 36 56 0
80 -84 95 0
5 -15 -32 0
26 81 86 0
14 48 76 0
15 58 -98 0
-17 21 96 0
18 -76 -95 0
-30 37 42 0
26 80 -91 0
82 -98 -100 0
15 -56 73 0
-67 96 -99 0
-10 35 -89 0
16 -45 80 0
37 -70 96 0
-40 64 83 0
-27 43 81 0
43 70 76 0
-39 -74 94 0
11 -21 46 0
14 -24 100 0
25 -52 -82 0
18 30 94 0
-2 -24 56 0
-41 59 -76 0
-44 -62 92 0
8 14 92 0
7 60 -90 0
-7 -26 72 0
-61 -79 83 0
-23 25 65 0
-41 -57 74 0
-21 39 -48 0
7 77 -78 0
-5 88 91 0
20 36 89 0
9 57 67 0
-69 -92 96 0
4 26 92 0
54 -77 -84 0
-53 76 82 0
-19 44 -66 0
-23 -35 -39 0
23 -41 84 0
-9 37 95 0
22 23 28 0
53 81 82 0
23 -64 73 0
-24 -60 95 0
-12 -35 -39 0
-62 -66 80 0
27 -30 -76 0
21 67 82 0
81 -92 -93 0
-30 -74 -83 0
-26 -43 -67 0
-16 -19 -23 0
-38 43 -46 0
19 -32 56 0
-4 -53 55 0
30 -77 89 0
-32 48 -52 0
-1 -79 95 0
-8 -48 61 0
13 21 -99 0
-13 -37 -68 0
22 66 -79 0
1 -18 -35 0
-1 -32 -80 0
39 62 66 0
-17 -20 52 0
38 53 70 0
-2 7 -82 0
12 -81 85 0
12 51 81 0
-45 -70 98 0
24 45 86 0
55 61 63 0
47 -56 -63 0
31 46 -74 0
61 -64 -82 0
13 27 -41 0
7 -42 -48 0
-19 -30 74 0
27 -30 -34 0
-42 -64 -85 0
58 -69 -88 0
22 82 -86 0
-21 -56 -93 0
64 -73 98 0
-2 48 -92 0
5 -24 74 0

