c Generated by rand.py 100 500 3 223153
c Generator source: https://github.com/aaw/sat/blob/master/gen/rand.py
p cnf 100 500
12 -44 56 0
81 83 99 0
-4 -41 -53 0
-26 -34 99 0
11 -54 63 0
-2 -9 -73 0
-21 66 70 0
35 63 86 0
-6 36 100 0
42 -85 94 0
-9 -31 -98 0
16 -17 94 0
-15 -32 -100 0
65 -75 -90 0
75 -87 100 0
10 91 98 0
73 -85 87 0
-51 66 -70 0
-1 -3 30 0
-23 -27 94 0
-31 -57 74 0
41 46 50 0
66 -67 84 0
31 -82 -90 0
20 56 -88 0
-1 -42 93 0
-32 -88 95 0
3 36 -56 0
4 -56 62 0
-27 28 71 0
-16 21 -64 0
31 40 -86 0
-24 -65 81 0
22 30 -65 0
49 -75 -79 0
7 -13 99 0
-54 73 -92 0
54 65 77 0
53 67 -68 0
-41 47 49 0
-14 15 -50 0
30 47 -71 0
-36 -40 66 0
-30 35 -73 0
-23 75 -95 0
-32 -38 -53 0
72 79 81 0
65 -70 81 0
-40 -51 60 0
7 18 -24 0
-40 -85 -89 0
-64 -87 -91 0
-28 77 87 0
-24 -28 -40 0
21 28 -39 0
-17 74 77 0
63 -74 -82 0
-22 -27 -54 0
-29 40 -66 0
6 65 75 0
-11 63 -74 0
-22 60 72 0
-7 21 -90 0
8 13 -18 0
-20 -49 85 0
43 -54 93 0
14 -63 95 0
15 -38 95 0
-43 -85 -94 0
-29 34 95 0
42 66 -93 0
-19 54 73 0
-67 72 -92 0
-28 59 90 0
-51 -84 90 0
24 -89 -98 0
-12 18 36 0
10 -32 88 0
-16 59 67 0
24 -26 94 0
-8 -72 -85 0
-15 -27 -66 0
19 47 79 0
26 41 -59 0
-20 -65 81 0
-8 18 54 0
47 -62 -66 0
35 -84 85 0
-6 47 75 0
61 -71 -90 0
-11 -38 91 0
-6 -53 62 0
-36 68 79 0
23 -84 -87 0
-35 36 -59 0
-28 -31 -44 0
10 72 -99 0
-5 -26 -68 0
81 89 -90 0
15 31 -60 0
-7 -49 85 0
-38 72 -89 0
-47 53 75 0
-79 88 -90 0
57 -67 71 0
1 -13 -48 0
20 -27 -70 0
-26 -57 99 0
-73 76 -97 0
-35 51 87 0
-6 -69 86 0
7 -67 -98 0
-13 56 93 0
26 61 -96 0
-44 51 -69 0
19 48 59 0
64 -72 95 0
58 -64 -92 0
-1 46 99 0
40 -68 80 0
-42 -80 88 0
15 -22 81 0
11 97 -99 0
-32 33 -79 0
-54 76 -88 0
1 -57 -62 0
-59 -61 -80 0
-23 -47 93 0
2 -8 -61 0
36 72 85 0
-43 -88 -96 0
-9 -97 -99 0
5 17 58 0
41 58 60 0
43 63 95 0
-9 14 -66 0
81 92 -96 0
-3 -54 -56 0
40 72 -77 0
9 20 26 0
18 -31 -36 0
-8 28 -32 0
32 89 99 0
-20 57 -75 0
-2 3 92 0
3 62 90 0
62 68 -73 0
-32 50 76 0
17 -33 87 0
14 23 -29 0
15 16 -72 0
-5 -20 -56 0
-9 26 87 0
32 -36 98 0
-7 32 65 0
52 73 89 0
-55 57 -97 0
6 51 79 0
20 30 86 0
23 -63 -95 0
-36 -81 -91 0
21 -29 -57 0
45 47 76 0
18 -61 77 0
13 60 95 0
-6 24 67 0
-74 87 -95 0
-22 -46 -87 0
-8 9 19 0
24 65 -74 0
19 -35 -45 0
-12 -73 -77 0
-9 50 77 0
-18 24 -62 0
-14 49 -70 0
9 -58 75 0
-10 -31 -86 0
4 -53 60 0
-2 -69 79 0
-62 67 73 0
20 -49 71 0
57 78 86 0
68 80 -92 0
-13 -49 54 0
-15 -24 63 0
7 30 73 0
-21 22 78 0
-30 -64 -70 0
1 -59 -90 0
-11 69 71 0
-68 73 100 0
38 39 -44 0
15 -47 -85 0
-9 59 -79 0
-48 78 -90 0
-49 58 -66 0
33 60 94 0
44 51 -59 0
9 -80 96 0
2 -21 -92 0
42 -71 -73 0
10 17 30 0
-42 63 -70 0
-41 -56 -77 0
28 45 -87 0
5 70 82 0
57 -62 -95 0
-27 61 65 0
-6 -10 -99 0
-29 -44 99 0
4 -16 29 0
-10 -40 -93 0
-10 -47 84 0
23 44 -96 0
-32 -55 88 0
-29 86 -87 0
12 -19 -25 0
41 -70 -94 0
10 38 67 0
17 -25 -30 0
-1 -2 -17 0
-13 15 -21 0
82 -84 -86 0
42 -79 86 0
14 -16 58 0
-40 -59 -80 0
1 47 -82 0
-1 2 -94 0
-57 65 -73 0
-58 -92 -94 0
-48 -63 74 0
1 -37 -96 0
-67 -79 -86 0
-10 -35 36 0
-23 -33 -95 0
-1 -37 -46 0
18 26 -52 0
-27 54 67 0
9 59 82 0
69 -76 80 0
11 65 72 0
25 40 54 0
-28 55 -86 0
22 -55 -71 0
-13 -68 96 0
-49 81 -85 0
-5 37 -54 0
-16 -22 -69 0
-31 -95 -99 0
13 -18 -28 0
7 16 -41 0
14 -50 72 0
-17 -67 78 0
31 -34 -43 0
-4 -7 -93 0
-28 -33 57 0
1 -57 -77 0
-17 61 -72 0
33 41 45 0
64 -68 77 0
74 -78 79 0
-9 -10 -14 0
58 60 66 0
-25 31 -61 0
27 45 58 0
-8 11 -26 0
39 -44 -60 0
8 53 68 0
-40 -82 -83 0
14 30 -60 0
-5 -13 -73 0
23 32 -61 0
-1 -69 71 0
-11 13 88 0
-24 -72 97 0
4 51 -75 0
39 -61 69 0
-15 -24 96 0
-50 55 -78 0
40 49 63 0
-25 28 -66 0
58 -63 -73 0
18 53 67 0
-57 81 85 0
41 42 -56 0
20 -25 -38 0
62 79 96 0
-19 -68 71 0
14 -44 -61 0
43 -47 -57 0
3 -55 -77 0
-39 -47 -77 0
-22 -80 94 0
-11 37 -58 0
-32 48 -94 0
-6 37 46 0
-7 9 -89 0
-30 67 71 0
7 19 42 0
-8 44 -80 0
-6 -49 87 0
-3 13 57 0
-8 -42 -70 0
-59 -62 -67 0
62 -78 93 0
50 71 -79 0
-68 -74 -86 0
5 -32 -75 0
-4 41 -80 0
-41 -53 -63 0
46 -80 -92 0
-27 -59 -61 0
25 72 100 0
12 -80 -95 0
-38 78 -95 0
-31 66 74 0
69 76 99 0
-26 -52 53 0
-29 -56 -85 0
-24 53 -94 0
12 -22 74 0
-10 40 -44 0
5 50 -99 0
91 -93 -100 0
-5 21 -50 0
45 -57 69 0
34 -71 -90 0
20 -41 -83 0
-31 54 96 0
-9 53 -89 0
-2 49 -79 0
40 -43 74 0
-16 -29 71 0
53 55 81 0
65 -78 98 0
1 -10 -63 0
-12 -15 -48 0
-42 51 52 0
2 6 -44 0
9 -31 67 0
-8 -27 -62 0
-28 -47 -95 0
-5 -16 18 0
-3 37 53 0
-6 68 -70 0
2 52 93 0
42 -85 -95 0
-5 55 -56 0
-9 64 -76 0
-47 58 -65 0
-75 -81 -83 0
21 -52 89 0
-30 73 -77 0
24 -38 -93 0
5 48 96 0
56 79 -92 0
53 -81 -85 0
37 -58 82 0
59 82 84 0
-8 32 95 0
48 -63 -81 0
-4 28 61 0
-2 66 78 0
-10 46 100 0
37 -71 -77 0
14 79 -88 0
-10 -23 -73 0
20 45 65 0
-9 -53 -91 0
-14 -30 46 0
7 -26 78 0
-25 -31 -56 0
-6 24 27 0
79 90 -94 0
5 -30 -81 0
72 -86 -88 0
-30 -46 60 0
44 58 -68 0
27 -29 92 0
-48 71 96 0
33 -65 81 0
81 -82 -100 0
-72 -75 -81 0
1 12 83 0
12 21 -77 0
-13 38 -68 0
3 -7 97 0
-3 5 -63 0
22 -67 -83 0
6 -35 -69 0
26 -41 -47 0
-7 -93 100 0
48 -58 87 0
18 -50 -85 0
-16 22 23 0
-56 -78 -82 0
30 61 72 0
1 15 -58 0
-82 84 -90 0
-12 76 -97 0
-52 89 -95 0
1 -14 -31 0
-37 -46 77 0
-28 -38 97 0
-22 -55 80 0
35 54 93 0
-27 -28 -49 0
-5 93 -97 0
-48 65 -73 0
54 -73 -97 0
11 -67 -72 0
-47 -75 -98 0
50 -74 87 0
47 78 -97 0
18 58 84 0
61 92 -97 0
56 -97 -98 0
-1 -40 43 0
1 -21 56 0
26 -29 -100 0
-25 60 95 0
13 -24 -98 0
-22 -72 -75 0
-5 -22 31 0
3 -86 -87 0
-25 -79 89 0
-52 91 99 0
42 97 100 0
-61 -72 87 0
-55 -86 -94 0
1 -63 -75 0
9 -28 97 0
6 -58 96 0
-20 -77 78 0
-15 -41 -44 0
22 -37 -61 0
-72 -79 84 0
1 -4 96 0
1 -3 -86 0
-27 48 -99 0
-47 -49 -50 0
-37 62 69 0
28 -51 -99 0
-71 73 82 0
-27 37 59 0
75 -87 90 0
-20 29 -79 0
33 -54 82 0
7 54 94 0
-15 24 -48 0
40 41 -66 0
-46 53 -70 0
-10 -21 -34 0
-33 51 70 0
-26 -80 -83 0
37 43 64 0
-10 -18 25 0
-30 34 64 0
-66 68 -85 0
23 -46 -69 0
-5 36 94 0
19 84 87 0
-2 -20 -68 0
6 -22 52 0
44 -82 96 0
-45 51 78 0
35 -60 -69 0
-14 52 62 0
64 -96 -99 0
-4 6 33 0
10 38 -68 0
29 70 -97 0
-67 89 94 0
-13 27 37 0
-74 -82 -85 0
1 -61 80 0
35 -44 -89 0
-27 29 -44 0
-26 29 -68 0
29 80 -94 0
-63 -78 -92 0
-73 74 76 0
12 50 -57 0
15 28 -74 0
39 67 -92 0
-37 46 -89 0
5 12 40 0
-3 20 90 0
37 41 -47 0
75 78 -89 0
17 -48 -76 0
-6 40 63 0
-19 32 -41 0
-15 -34 94 0
36 -63 90 0
35 43 49 0
10 -33 57 0
1 33 -43 0
-12 -30 35 0
68 70 100 0

