c Generated by rand.py 100 500 3 679636
c Generator source: https://github.com/aaw/sat/blob/master/gen/rand.py
p cnf 100 500
32 -72 99 0
-17 19 -66 0
-23 -97 99 0
-31 75 81 0
21 59 99 0
-7 -32 78 0
-5 68 -81 0
-21 -61 82 0
14 -61 65 0
24 47 96 0
-37 -39 47 0
24 -34 45 0
-28 -31 56 0
-6 53 -69 0
-5 -9 -97 0
32 -52 -91 0
43 -91 -94 0
13 -56 -67 0
-7 -45 71 0
-1 39 -94 0
26 53 63 0
-24 76 -93 0
-46 59 -83 0
7 -19 27 0
5 39 53 0
-33 -77 -96 0
18 -47 -76 0
-48 -77 90 0
-36 -60 -70 0
-15 43 55 0
9 48 65 0
-20 33 78 0
-60 67 95 0
26 33 -94 0
24 -26 -55 0
-21 -67 -68 0
11 -25 29 0
-63 65 -89 0
26 30 52 0
-13 58 89 0
-32 -69 -95 0
-1 7 -15 0
-46 -50 -94 0
-18 62 73 0
-33 -45 60 0
-24 -39 -98 0
-11 -84 -98 0
12 38 -47 0
2 -21 -27 0
66 84 91 0
27 -60 75 0
-70 -87 95 0
27 -36 74 0
-11 -47 -93 0
32 -64 -73 0
14 31 -76 0
-51 -56 -90 0
23 46 -100 0
-44 60 75 0
-20 50 87 0
-7 38 -74 0
-17 -53 54 0
1 -31 39 0
-28 -39 -58 0
21 52 -77 0
-59 62 88 0
18 -45 78 0
22 -81 -98 0
-3 -79 85 0
53 89 -95 0
-38 63 96 0
-36 -65 67 0
47 74 77 0
47 69 -77 0
11 25 -91 0
-39 41 48 0
5 49 -98 0
-2 60 72 0
19 20 -91 0
36 -54 -99 0
27 -31 85 0
-29 53 -54 0
-57 59 87 0
29 -30 61 0
-47 75 -85 0
-14 -81 -82 0
13 73 -95 0
-24 -42 -51 0
-10 -77 -80 0
-73 -75 -80 0
-15 -20 -91 0
-40 50 -77 0
-45 -53 87 0
-6 -11 -99 0
55 70 81 0
-30 -39 -70 0
-21 53 58 0
-13 -15 74 0
-1 -62 70 0
-20 37 -46 0
-4 54 -82 0
-32 -87 88 0
-49 66 90 0
40 -94 100 0
14 16 17 0
-47 75 -80 0
-32 -43 -71 0
58 -81 97 0
-14 50 -74 0
-40 54 89 0
29 57 -95 0
25 -76 -81 0
-4 -54 86 0
-32 -57 -70 0
14 -49 93 0
-15 32 -35 0
31 63 75 0
2 -61 -69 0
-6 10 -62 0
26 54 -87 0
-18 -53 -94 0
56 -58 65 0
37 -43 -45 0
-9 -44 -91 0
1 9 -100 0
-9 -21 -56 0
-15 42 -61 0
-24 39 74 0
-27 -75 95 0
29 58 62 0
32 -76 -93 0
8 -65 82 0
-21 -43 59 0
11 91 97 0
-32 -42 -69 0
5 36 69 0
-24 27 31 0
-9 23 -28 0
-39 -55 83 0
-6 34 69 0
-18 67 68 0
42 -86 100 0
-18 -69 75 0
-41 70 79 0
-20 -32 68 0
14 -19 -73 0
2 -17 80 0
-17 -44 -77 0
-2 -86 89 0
4 24 -68 0
60 73 74 0
17 -58 -98 0
-26 37 -52 0
15 47 -86 0
1 46 -89 0
-68 81 -83 0
-19 -38 88 0
-3 -47 -61 0
-5 55 75 0
50 51 -73 0
4 -7 -18 0
5 -22 31 0
-18 84 86 0
-6 -48 84 0
17 22 49 0
-4 -78 99 0
-15 49 76 0
-41 98 -100 0
11 33 92 0
-41 -57 -80 0
18 -95 100 0
6 -19 -80 0
-11 -12 18 0
25 44 74 0
-18 -32 -95 0
12 -40 -72 0
-8 17 -49 0
8 -38 44 0
-28 -58 -73 0
3 -39 -45 0
24 55 -81 0
2 9 -42 0
34 -75 -96 0
-33 85 -97 0
-47 82 -85 0
-6 -35 50 0
52 -57 69 0
29 59 -69 0
12 -19 60 0
7 -65 67 0
50 66 -71 0
27 57 59 0
58 -64 -70 0
3 9 80 0
33 40 -53 0
8 -72 76 0
44 66 83 0
-12 20 28 0
-55 -64 73 0
-69 -84 86 0
9 29 79 0
-9 -17 80 0
-34 46 -84 0
-18 41 94 0
46 -69 79 0
-14 -56 57 0
47 61 -80 0
-10 -84 88 0
19 66 -91 0
61 -62 -73 0
1 70 85 0
4 8 51 0
10 22 -33 0
-29 -31 62 0
65 -87 89 0
-9 -89 98 0
-10 -29 87 0
35 -66 -67 0
13 -14 17 0
-7 -28 69 0
-3 76 96 0
33 -86 -99 0
12 36 -97 0
-19 33 -39 0
4 -50 -66 0
-14 18 27 0
-27 -30 54 0
26 42 -97 0
-22 -44 -97 0
-16 -17 52 0
-63 69 -90 0
-25 39 -75 0
-36 69 77 0
42 65 74 0
43 50 58 0
52 -53 81 0
-26 65 91 0
14 35 41 0
-25 -34 39 0
26 -63 -86 0
21 22 -75 0
26 -41 -87 0
-32 -36 64 0
9 73 -95 0
29 -95 98 0
13 -27 38 0
-7 -63 -82 0
1 12 83 0
45 47 87 0
15 -25 68 0
34 71 -89 0
3 11 -18 0
-1 13 33 0
16 34 -77 0
-26 -29 49 0
-29 53 59 0
-18 -52 56 0
-8 48 68 0
14 35 87 0
34 63 -70 0
32 -85 90 0
-24 30 -74 0
51 -53 -76 0
-15 29 -70 0
-11 -29 -40 0
-16 -36 50 0
-64 65 -82 0
64 82 87 0
13 -60 -84 0
-30 -77 92 0
-50 87 89 0
-3 62 97 0
-3 71 91 0
1 -12 -34 0
15 -17 -77 0
-4 24 36 0
-6 -72 94 0
1 -21 -84 0
-53 67 -96 0
-64 68 76 0
-48 50 96 0
21 -29 -33 0
-23 -50 -79 0
14 54 -91 0
3 -72 -96 0
34 48 -64 0
26 55 76 0
12 63 95 0
-14 64 -99 0
-22 40 78 0
-19 -20 -68 0
-56 -70 98 0
12 -34 -64 0
-26 -43 88 0
34 71 -94 0
5 -18 20 0
48 72 -88 0
-32 -35 -74 0
5 -36 -82 0
24 -60 -79 0
10 32 -81 0
14 -89 98 0
29 75 92 0
-30 67 -76 0
55 -67 -96 0
1 50 94 0
45 -67 -81 0
-2 61 -93 0
31 -49 -83 0
7 -71 98 0
-4 84 85 0
-28 44 70 0
-33 -34 89 0
8 -60 -75 0
-19 49 -63 0
-34 80 -88 0
18 40 72 0
9 -16 -40 0
-65 76 92 0
67 -73 -82 0
-19 -43 -98 0
6 -7 75 0
-24 -78 -94 0
-2 23 -31 0
12 -16 29 0
30 -40 -45 0
41 -73 78 0
-5 -19 -26 0
-8 31 56 0
6 26 -65 0
25 56 60 0
11 -14 -47 0
3 -15 -87 0
-57 73 100 0
14 17 81 0
41 60 -67 0
-16 -24 -42 0
-57 61 75 0
5 49 94 0
9 55 -64 0
-6 16 96 0
-14 -89 -97 0
-17 -37 -90 0
2 -49 -92 0
-34 66 82 0
-7 44 -46 0
4 49 94 0
-19 51 -74 0
-54 55 64 0
-13 -14 -87 0
22 48 -75 0
3 14 94 0
18 73 93 0
27 53 89 0
-50 71 84 0
-10 -67 74 0
-22 61 -82 0
9 44 -69 0
23 -67 82 0
-30 -42 67 0
-12 -54 87 0
51 -70 84 0
-16 61 -69 0
-10 80 99 0
22 -64 79 0
-24 74 89 0
13 41 96 0
5 25 45 0
25 -64 -69 0
-28 46 -67 0
43 79 -87 0
-72 81 -93 0
26 -58 89 0
24 -54 -80 0
4 16 80 0
20 -27 44 0
1 43 51 0
-12 44 70 0
-23 64 79 0
20 24 66 0
-1 -37 97 0
-65 -87 99 0
42 -65 98 0
-10 31 46 0
-39 -41 81 0
52 -54 56 0
-2 6 7 0
-8 81 98 0
-13 55 86 0
-25 -38 88 0
29 -33 79 0
14 -40 42 0
25 40 77 0
5 32 37 0
-24 -44 -47 0
67 69 80 0
-14 34 -84 0
77 -87 90 0
-26 -55 65 0
-1 -3 91 0
-8 44 -66 0
-33 -65 80 0
2 36 -77 0
-8 -30 70 0
3 11 60 0
41 -52 76 0
-22 -32 63 0
-62 -84 -98 0
-32 40 48 0
23 -46 76 0
13 -27 48 0
-15 -23 38 0
33 79 -80 0
-33 68 -77 0
57 -84 99 0
-82 -83 85 0
-48 49 -77 0
-14 -53 91 0
-27 56 -78 0
16 86 -90 0
-8 -16 -56 0
67 74 -87 0
-2 -59 -78 0
5 39 -64 0
37 -53 -66 0
10 32 -68 0
-9 -20 -41 0
12 -55 -73 0
-4 -23 30 0
40 54 71 0
-54 -78 88 0
24 -38 -42 0
-12 14 -57 0
27 -65 -97 0
6 -56 78 0
32 -35 74 0
-11 -32 91 0
10 -14 -62 0
46 56 65 0
-9 10 43 0
-4 42 -69 0
-11 13 -52 0
-12 -35 -72 0
21 46 -48 0
77 -83 -86 0
-2 22 -41 0
-66 -88 -92 0
16 32 -94 0
-50 71 -90 0
-58 -82 98 0
-25 39 -44 0
-19 79 -96 0
11 -37 43 0
22 -33 -62 0
40 -41 -64 0
-22 27 -60 0
4 -30 -38 0
-44 -54 -78 0
42 -65 74 0
-12 -31 -45 0
-15 -46 80 0
40 -52 91 0
2 45 -97 0
-42 -48 98 0
-3 -56 87 0
4 -24 -63 0
60 -73 74 0
13 -34 46 0
27 29 61 0
-7 21 -64 0
1 -54 -71 0
38 -39 54 0
-28 -84 100 0
-29 -70 -81 0
2 34 37 0
41 -57 70 0
-22 74 79 0
73 79 97 0
28 53 -89 0
28 73 78 0
-20 55 82 0
-5 -29 -93 0
-6 39 -73 0
-16 -55 85 0
-27 -52 -99 0
-55 56 -79 0
18 46 -64 0
-35 58 88 0
-44 71 -87 0
-59 -67 71 0
-13 41 -74 0
-7 -37 -64 0
5 70 87 0
52 -56 -59 0
39 41 -57 0
21 63 -65 0
20 -60 76 0
-10 29 -44 0
-15 -62 78 0
63 66 -95 0

