c Generated by rand.py 100 500 3 69400
c Generator source: https://github.com/aaw/sat/blob/master/gen/rand.py
p cnf 100 500
23 -43 -95 0
-2 17 -50 0
-63 65 87 0
-28 41 91 0
-2 35 -85 0
46 81 88 0
12 -13 -27 0
76 89 100 0
11 23 30 0
-30 -47 -70 0
25 87 -98 0
9 -55 92 0
-25 60 92 0
3 -19 33 0
-46 51 71 0
23 58 -81 0
-43 76 -79 0
17 -44 68 0
-3 -74 -97 0
2 -20 74 0
88 -89 90 0
22 69 74 0
11 87 -100 0
13 47 -82 0
10 -68 90 0
-6 37 97 0
-7 -50 -91 0
-4 9 -24 0
5 33 41 0
-53 -76 -89 0
3 42 -56 0
1 -31 -33 0
37 51 73 0
-50 74 98 0
-11 47 -82 0
-69 -75 89 0
69 85 99 0
11 -23 53 0
19 -52 -99 0
-64 -82 93 0
-50 -62 72 0
-26 -48 -68 0
8 -28 35 0
-14 43 -87 0
-15 27 -89 0
-5 36 -93 0
47 48 -83 0
23 24 -79 0
-9 32 -76 0
-27 -29 49 0
41 42 -67 0
-37 56 -86 0
72 77 -92 0
1 -5 -59 0
-8 97 -99 0
14 -23 -26 0
43 -69 98 0
-28 56 58 0
4 -61 -88 0
7 36 44 0
65 -69 -81 0
12 40 -50 0
-25 -53 -71 0
-29 -33 -100 0
-22 45 68 0
-18 -21 -46 0
-37 -70 -83 0
-13 35 97 0
-46 49 -68 0
-15 75 -100 0
-31 -52 80 0
22 73 91 0
-20 -59 -70 0
-43 51 -61 0
-39 77 -100 0
36 -69 91 0
-18 -25 -59 0
60 69 78 0
-23 -91 -92 0
10 -82 -94 0
-23 -61 -95 0
-3 48 92 0
-6 55 60 0
-8 26 100 0
-2 -20 -84 0
35 -38 41 0
39 -50 83 0
-21 -52 91 0
-2 8 21 0
61 72 -99 0
3 19 -41 0
-26 49 -60 0
56 62 93 0
6 -10 15 0
-52 -58 76 0
-19 -65 -78 0
27 73 -87 0
17 -60 -79 0
-33 -39 87 0
19 -43 68 0
-4 -63 68 0
-21 39 64 0
16 -40 62 0
16 -50 59 0
20 -36 49 0
27 -33 87 0
1 -64 -80 0
-7 -27 72 0
13 -63 69 0
-10 21 -81 0
29 61 63 0
-12 43 85 0
-18 -60 100 0
-15 23 -69 0
5 -33 63 0
-38 77 -98 0
-26 -52 89 0
-61 -68 76 0
23 62 94 0
17 -20 -46 0
-4 20 -34 0
34 43 81 0
-20 26 35 0
27 -32 -78 0
4 -34 -85 0
4 74 -91 0
8 -31 90 0
10 -13 96 0
6 13 -70 0
-40 76 -79 0
8 -14 -98 0
-12 -74 92 0
-12 -95 -96 0
1 3 -34 0
-10 21 39 0
-5 19 -96 0
-3 -4 68 0
47 68 81 0
-40 -61 67 0
56 -63 97 0
36 39 -40 0
-52 62 -96 0
-10 -80 -89 0
-8 -48 75 0
18 76 78 0
-37 -77 91 0
5 31 -41 0
-23 -29 88 0
-25 -43 -53 0
41 -42 60 0
26 -68 82 0
10 40 96 0
22 58 76 0
-8 -62 -100 0
23 26 52 0
21 -66 71 0
14 36 -85 0
-43 62 -67 0
20 -44 89 0
-40 77 -89 0
26 60 -85 0
6 13 98 0
-28 -90 95 0
-48 -49 -90 0
19 -62 -64 0
-34 75 100 0
-9 -15 -59 0
-20 50 -99 0
-22 -61 -72 0
-77 94 98 0
-10 -38 76 0
21 56 83 0
22 -88 -96 0
14 -53 -81 0
5 10 44 0
-29 -53 73 0
12 -70 98 0
1 -27 -32 0
47 -97 -99 0
-61 70 84 0
-10 50 55 0
-37 -55 64 0
-59 69 -92 0
30 85 99 0
12 -67 86 0
11 -15 85 0
-74 -89 96 0
-36 46 -61 0
-83 86 -98 0
-31 50 -97 0
-20 -63 -67 0
8 -24 -92 0
-19 -53 86 0
56 89 -90 0
-6 -26 -85 0
3 55 -96 0
14 57 -97 0
-12 58 -74 0
-14 -86 91 0
12 -29 -74 0
33 92 -100 0
-25 29 -58 0
-40 -49 -99 0
-33 -95 -98 0
17 -41 -61 0
-19 -24 -82 0
19 -29 37 0
-2 38 -94 0
14 15 71 0
34 -58 92 0
-4 -52 78 0
-11 -14 -93 0
-62 -91 93 0
30 35 80 0
-47 -72 84 0
6 -18 -32 0
15 21 89 0
8 17 -35 0
22 -24 -30 0
-4 -13 53 0
-4 68 -77 0
-47 52 -61 0
12 41 89 0
-5 -14 -57 0
-49 -54 87 0
-51 78 89 0
-74 -90 -96 0
31 56 -83 0
16 29 -34 0
59 65 85 0
-10 22 83 0
-36 66 86 0
-10 -53 -56 0
-7 -57 87 0
36 80 96 0
-24 81 -99 0
31 38 -84 0
-44 -60 68 0
-30 -63 -66 0
-12 29 -30 0
1 -42 -46 0
-5 -10 -53 0
-18 20 -72 0
-24 -41 81 0
-34 60 -97 0
50 -74 90 0
-24 48 81 0
50 -58 97 0
-2 -23 -87 0
5 20 -98 0
51 -87 96 0
38 85 -100 0
5 -24 -54 0
-19 32 -65 0
-24 -26 40 0
-54 -66 72 0
-46 66 -72 0
-37 66 -77 0
-12 -35 -44 0
3 53 85 0
5 65 -85 0
4 16 55 0
-13 -93 -96 0
-4 31 -36 0
7 -48 52 0
-10 -22 54 0
13 -68 88 0
-30 37 54 0
-41 53 -76 0
38 67 -97 0
4 58 67 0
-53 -70 77 0
4 -17 -62 0
-5 47 90 0
-37 42 59 0
-32 51 -80 0
-19 34 57 0
24 40 56 0
-57 65 -100 0
8 -59 87 0
-23 31 -89 0
1 67 93 0
-3 -12 -65 0
-41 59 -94 0
73 79 -86 0
-35 -64 98 0
-29 -50 95 0
-46 67 74 0
-11 29 48 0
-56 65 -73 0
-13 -39 66 0
-54 84 -92 0
17 48 -57 0
13 26 -54 0
-2 85 99 0
-34 55 89 0
-7 67 96 0
-23 65 -89 0
5 33 47 0
-10 -39 40 0
-42 49 -70 0
-37 -51 62 0
1 55 -62 0
17 -22 -31 0
42 -55 99 0
-19 -54 -66 0
5 -6 72 0
29 61 69 0
-42 90 98 0
48 -58 76 0
13 -52 85 0
5 -27 87 0
-17 -29 -50 0
-9 21 -46 0
41 42 61 0
2 87 93 0
-10 -35 -84 0
17 -30 -77 0
6 -54 70 0
-48 56 93 0
-15 29 -80 0
11 -13 31 0
-35 36 39 0
3 83 88 0
28 -46 58 0
57 81 95 0
21 40 57 0
-34 50 62 0
16 -25 86 0
18 47 83 0
-4 -33 -83 0
40 47 92 0
-2 26 -49 0
47 79 83 0
-16 -59 -62 0
38 -66 -68 0
31 -48 -89 0
49 -73 95 0
-24 40 91 0
50 64 97 0
5 37 -78 0
-5 62 78 0
-43 -50 55 0
-4 -36 -54 0
-1 67 -93 0
20 -24 26 0
-1 26 99 0
4 -5 -17 0
63 65 93 0
-9 32 -75 0
-37 89 100 0
-81 -91 95 0
-14 60 84 0
11 69 -76 0
12 18 -81 0
5 -45 -98 0
-21 -22 33 0
-45 -65 -74 0
-1 35 62 0
-43 -80 85 0
48 76 87 0
-6 34 -58 0
-6 -18 100 0
-3 -18 -42 0
-22 -68 100 0
-24 65 -73 0
-63 76 -84 0
-14 50 55 0
45 54 -83 0
-1 -24 74 0
3 -6 -99 0
-12 -54 99 0
-20 39 -57 0
8 44 -82 0
-33 50 61 0
-62 -84 89 0
-13 -30 35 0
-38 -70 -85 0
51 -78 -94 0
-17 -45 48 0
-12 -43 91 0
44 56 78 0
-27 28 -96 0
18 -72 -99 0
14 52 -82 0
-7 82 87 0
-15 42 -69 0
-3 26 -67 0
-27 79 83 0
-10 -40 64 0
4 -26 -28 0
-16 -46 94 0
7 87 92 0
2 20 72 0
10 -45 91 0
-8 28 -96 0
-30 -91 -94 0
-4 -95 100 0
-45 -50 -71 0
20 -36 76 0
-31 49 72 0
-25 59 65 0
7 38 -64 0
-52 -61 76 0
39 -81 -91 0
2 -36 -84 0
-16 -83 86 0
-2 -8 -43 0
6 -17 -81 0
-16 -18 -95 0
-8 33 -65 0
43 74 88 0
-57 78 -89 0
-71 -82 85 0
20 91 94 0
-20 25 -31 0
-10 -25 65 0
50 68 94 0
20 -25 -65 0
22 -30 72 0
8 -58 60 0
18 -71 89 0
25 41 -56 0
14 42 78 0
11 27 -69 0
-35 -36 -53 0
5 -8 64 0
-23 -46 -59 0
69 70 -91 0
38 -59 64 0
25 46 55 0
-19 -51 69 0
31 -46 70 0
10 -38 70 0
20 64 87 0
-58 76 83 0
8 -38 44 0
30 55 -79 0
-57 85 92 0
30 -46 -70 0
-8 -10 -90 0
-23 -50 53 0
-42 -81 88 0
28 90 -92 0
-3 -93 -96 0
-30 -55 -100 0
-20 52 -54 0
55 -78 -93 0
-4 17 26 0
4 -11 -60 0
71 -85 -97 0
-42 47 79 0
14 -64 65 0
-13 -19 -56 0
42 44 -46 0
21 31 -97 0
-12 58 -64 0
-20 69 -76 0
-6 -58 75 0
-22 49 -92 0
2 3 34 0
70 -82 94 0
-17 -21 92 0
-5 28 91 0
-78 83 -94 0
21 66 -94 0
-66 -71 98 0
3 -37 95 0
-19 -95 96 0
-53 -69 95 0
-32 41 57 0
18 57 63 0
16 -29 53 0
-12 -65 99 0
27 -33 -84 0
-20 -22 69 0
-68 -86 -100 0
8 -15 -86 0
29 31 81 0
20 68 -76 0
-10 -42 -57 0
10 51 -90 0
-2 12 85 0
-20 26 84 0
-40 41 92 0
-19 -58 -71 0
53 -77 81 0
9 28 -67 0
-6 54 81 0
-6 -15 -31 0
32 51 -99 0
-19 -27 -87 0
-44 82 -95 0
22 -73 84 0
-4 -44 -66 0
22 -37 91 0
-23 26 -44 0
34 -68 -74 0
74 -90 -98 0
10 52 -78 0

