c Generated by rand.py 75 375 3 270599
c Generator source: https://github.com/aaw/sat/blob/master/gen/rand.py
p cnf 75 375
23 25 -61 0
-16 28 70 0
19 41 -47 0
-22 59 -67 0
8 20 30 0
-26 -46 -49 0
-2 -7 54 0
1 -6 51 0
-30 -42 -71 0
1 3 -10 0
-43 -51 -72 0
-42 -46 56 0
2 7 -33 0
39 -40 -63 0
-23 24 58 0
8 -37 -50 0
-4 -71 72 0
10 -15 -22 0
10 -33 42 0
3 39 57 0
47 51 57 0
19 21 -65 0
-4 9 -45 0
13 24 28 0
-3 57 71 0
18 -55 -67 0
28 -29 -62 0
24 35 71 0
18 -37 -58 0
-12 18 -72 0
19 32 -36 0
-19 45 -65 0
19 -44 59 0
-5 8 42 0
32 66 74 0
-10 43 -70 0
56 -65 -68 0
10 -18 -52 0
12 -66 68 0
26 44 75 0
3 12 -15 0
35 38 60 0
7 -43 -54 0
9 -20 70 0
12 -14 66 0
4 -53 70 0
4 -41 -49 0
34 -35 51 0
7 17 35 0
33 69 -71 0
24 47 -63 0
-54 56 -70 0
-15 38 -57 0
-23 56 -64 0
-14 -16 65 0
8 -45 61 0
3 11 -44 0
4 -18 -67 0
7 52 74 0
24 -47 49 0
4 -32 72 0
-8 -23 -73 0
9 31 -52 0
-9 22 62 0
15 56 -65 0
-1 2 6 0
6 16 -35 0
19 27 -51 0
-15 -54 70 0
4 -35 -42 0
21 -44 -60 0
5 57 65 0
-6 10 28 0
-8 -11 71 0
-43 -54 -56 0
5 -31 -33 0
15 -24 -64 0
1 48 -50 0
-51 54 62 0
-31 54 68 0
-49 -50 -71 0
3 -30 63 0
-13 20 -32 0
-5 24 72 0
-5 32 33 0
-9 -34 57 0
-7 15 -19 0
-11 -43 -49 0
-11 32 -68 0
-18 20 72 0
28 48 -68 0
-39 -41 58 0
-45 -50 -63 0
43 57 -59 0
24 -46 -61 0
18 -56 -72 0
17 22 58 0
-18 62 64 0
8 26 -44 0
5 -14 -26 0
40 48 56 0
22 32 38 0
11 -13 59 0
5 28 -72 0
-19 33 61 0
-40 55 64 0
40 -52 -66 0
-9 -36 51 0
17 -56 58 0
-15 24 73 0
-4 -36 -48 0
-39 55 -75 0
17 22 -55 0
-13 -30 67 0
20 22 -69 0
-7 13 -29 0
-34 41 52 0
44 58 -65 0
-29 62 72 0
-9 -41 -61 0
-54 -67 68 0
-34 -40 -62 0
29 -57 63 0
-19 -61 72 0
-45 -55 -70 0
7 40 60 0
-34 -48 50 0
5 32 -33 0
4 39 50 0
37 60 65 0
8 43 69 0
-16 -43 -56 0
28 -62 68 0
13 -31 46 0
-7 -51 63 0
3 30 50 0
45 52 64 0
10 -14 -25 0
-9 36 -39 0
-32 -46 62 0
-1 17 53 0
35 -40 -41 0
9 12 -48 0
-18 -19 -40 0
-3 -38 46 0
7 -45 -63 0
10 -23 45 0
-6 12 45 0
-31 50 73 0
33 -37 45 0
-8 24 28 0
-19 50 65 0
44 -58 -64 0
37 -58 -65 0
-18 -44 -67 0
57 -64 -73 0
-36 -49 -50 0
16 50 -60 0
22 -29 53 0
24 46 -50 0
-9 -24 -25 0
41 50 66 0
35 61 73 0
-10 58 -71 0
23 43 -44 0
46 47 66 0
-12 -15 -71 0
10 22 -43 0
-12 -19 60 0
6 14 -30 0
4 25 47 0
24 43 75 0
-26 -59 73 0
-52 66 -69 0
7 38 52 0
-57 -61 64 0
-16 40 56 0
-13 -32 48 0
-7 64 -68 0
-18 -23 39 0
-12 16 -47 0
6 -17 40 0
-34 47 -73 0
-19 -65 -74 0
-13 66 67 0
4 -37 43 0
6 -61 69 0
-13 17 26 0
24 26 -31 0
-32 -56 61 0
6 24 -56 0
-1 -21 -41 0
-45 -69 -75 0
-15 69 -73 0
11 15 -52 0
24 -38 -56 0
-16 -33 -75 0
37 45 67 0
15 -48 -75 0
-33 50 -72 0
3 37 -48 0
-31 -46 65 0
-18 30 -54 0
-14 -20 -24 0
19 -34 -72 0
-17 27 -63 0
-45 -64 68 0
21 37 70 0
21 -36 -68 0
5 58 -62 0
-9 43 49 0
12 22 66 0
15 -35 -36 0
-29 58 -70 0
8 40 59 0
-9 -15 58 0
-12 -14 70 0
-7 54 68 0
10 17 -23 0
-29 41 63 0
-2 -23 58 0
2 -20 63 0
-5 23 -54 0
-58 66 -72 0
28 46 -47 0
43 56 75 0
10 -58 -73 0
42 45 -70 0
-42 -64 67 0
33 -61 -75 0
12 13 -37 0
34 50 -75 0
-17 -58 -61 0
-17 25 -72 0
5 25 62 0
-4 38 54 0
7 -19 60 0
41 -46 -48 0
13 -55 56 0
26 -57 63 0
-5 -29 -47 0
12 -20 73 0
21 -41 55 0
17 61 -74 0
-35 -48 -52 0
-26 31 58 0
-12 32 -52 0
41 -47 49 0
-1 -15 -39 0
-21 -45 -72 0
1 -9 59 0
-5 -23 34 0
-22 -33 -47 0
-26 47 75 0
24 -37 -67 0
-7 -29 56 0
-29 44 -68 0
15 19 -66 0
-41 64 75 0
-24 -45 -51 0
-17 -64 -73 0
-11 -14 -24 0
-14 21 -51 0
2 -23 63 0
-3 -24 32 0
-19 -41 49 0
-2 -20 -21 0
-22 -27 50 0
30 -63 71 0
21 -41 50 0
15 -36 -46 0
21 39 62 0
-8 60 64 0
-7 56 -63 0
34 44 -47 0
27 52 63 0
17 -39 -54 0
19 -62 -70 0
-29 55 72 0
-20 -65 -73 0
-25 27 51 0
8 34 -50 0
-14 27 -52 0
-59 61 68 0
1 -6 -36 0
7 -9 -20 0
-50 -52 -53 0
40 -49 -55 0
-20 58 -72 0
34 -36 -44 0
13 -26 38 0
-13 40 -42 0
-16 30 -51 0
47 59 61 0
6 -30 -65 0
-11 25 72 0
25 58 -65 0
-5 17 -65 0
-24 44 46 0
11 40 46 0
21 45 -48 0
-3 12 64 0
-44 -55 72 0
4 8 -62 0
25 37 -67 0
42 46 -61 0
9 -35 -73 0
-7 52 -64 0
-13 15 -72 0
-1 -45 -70 0
-22 -26 59 0
2 37 -59 0
-13 31 43 0
-4 26 -43 0
-34 38 -39 0
-6 31 -45 0
12 -52 64 0
21 -23 -67 0
-43 -46 -48 0
6 38 -54 0
15 48 56 0
-17 20 -29 0
-42 68 75 0
-10 -22 57 0
-10 -50 -74 0
-42 52 -60 0
-58 60 -70 0
-8 -21 -63 0
-32 38 47 0
7 -52 58 0
7 63 74 0
4 -5 -66 0
27 -66 -73 0
-1 -27 -75 0
-29 -44 51 0
-13 43 68 0
-7 -9 -13 0
-6 -70 71 0
5 -16 -20 0
40 -47 -59 0
22 -31 -40 0
29 64 70 0
-40 45 -56 0
-43 54 56 0
-3 8 63 0
-60 63 68 0
-1 45 69 0
31 -43 -66 0
13 -21 -23 0
2 -64 -70 0
20 38 -55 0
-2 55 66 0
63 68 73 0
7 10 -33 0
-10 -34 -40 0
16 35 52 0
-3 9 -36 0
52 -53 -70 0
-53 56 61 0
7 -31 -38 0
33 -70 -73 0
15 -46 68 0
31 -58 -65 0
-4 -18 21 0
-19 32 75 0
-11 -26 73 0
-6 -10 22 0
27 -65 -74 0
-5 -38 55 0
-31 -32 59 0
-21 -40 42 0
1 -20 -39 0
7 -37 -43 0
10 -74 -75 0
59 63 -68 0

