c Generated by rand.py 100 500 3 858167
c Generator source: https://github.com/aaw/sat/blob/master/gen/rand.py
p cnf 100 500
4 12 91 0
45 75 76 0
45 -51 -78 0
-3 35 -54 0
-38 44 97 0
-15 -40 -91 0
-41 -76 -82 0
14 -34 83 0
1 54 -74 0
-25 62 -84 0
24 -27 37 0
29 59 63 0
-5 35 41 0
11 -14 -68 0
-1 -58 -63 0
-33 -68 -73 0
24 50 57 0
14 -18 -90 0
66 70 -80 0
-2 -27 -85 0
-1 -86 -100 0
32 -67 -91 0
-30 -78 90 0
18 59 -97 0
-44 -57 -62 0
-20 -41 81 0
-65 -74 99 0
67 -69 -97 0
-18 -41 80 0
-29 34 -76 0
-20 55 88 0
10 57 98 0
-7 -18 81 0
-54 70 -73 0
-11 35 56 0
7 94 95 0
34 -73 -91 0
-19 27 40 0
17 -26 95 0
40 -47 80 0
-39 -43 46 0
7 -64 -87 0
20 49 55 0
10 62 86 0
13 46 -47 0
19 -43 -46 0
13 94 99 0
43 -46 -59 0
45 60 93 0
13 -16 -57 0
36 -81 99 0
41 42 74 0
-6 21 -57 0
-52 -53 -84 0
-73 86 100 0
-2 12 -20 0
-15 18 -51 0
-31 45 -81 0
-5 -77 -100 0
35 -67 -82 0
39 55 -81 0
-54 -58 95 0
4 -79 -84 0
-23 33 84 0
-5 -9 73 0
-27 -39 -99 0
-38 55 -75 0
-31 -83 95 0
59 -68 -95 0
36 40 87 0
17 55 85 0
-40 -90 97 0
17 -61 73 0
12 -13 63 0
2 -45 -65 0
-14 17 63 0
11 -14 -26 0
25 46 92 0
13 17 53 0
1 40 -42 0
-42 70 -84 0
11 -34 75 0
-7 23 -45 0
-52 -57 67 0
1 -8 37 0
-68 69 86 0
-14 -16 -96 0
-31 -47 -97 0
13 -76 91 0
-41 -53 79 0
-16 42 -92 0
5 -11 -91 0
-36 37 58 0
12 43 53 0
-12 -36 67 0
4 53 96 0
37 -39 41 0
-7 -55 90 0
9 -64 -94 0
-74 -78 -96 0
47 -55 -94 0
-4 -86 -97 0
-12 50 -69 0
-1 -6 30 0
51 74 77 0
-2 -12 -89 0
10 15 -90 0
-16 48 68 0
-15 16 54 0
-3 -15 90 0
-12 -58 -96 0
-25 65 75 0
-7 -47 -70 0
-33 83 92 0
-10 -27 99 0
4 43 67 0
10 -27 -76 0
-22 67 -84 0
-23 -50 56 0
-4 38 82 0
-24 -90 -91 0
5 -14 52 0
54 68 95 0
-3 33 100 0
-10 -62 71 0
-12 75 80 0
-64 -66 -78 0
1 -34 90 0
1 -26 42 0
17 -85 -98 0
-40 -44 -58 0
9 12 40 0
-1 36 88 0
15 77 97 0
20 -29 99 0
-52 58 -98 0
-61 63 100 0
44 77 87 0
6 43 56 0
-9 18 82 0
4 12 -75 0
2 -64 92 0
-9 -60 63 0
-7 -37 78 0
-35 54 -90 0
-44 89 -94 0
-29 -51 -61 0
53 54 -89 0
-45 -69 84 0
11 42 -65 0
9 47 81 0
35 55 98 0
-22 -78 92 0
-6 -56 -99 0
-32 -71 72 0
8 19 -97 0
17 50 79 0
15 24 -88 0
5 -22 -45 0
-67 94 99 0
-31 94 95 0
13 -15 24 0
-6 -20 -77 0
-4 5 68 0
-65 -69 -75 0
41 45 -82 0
7 -39 42 0
3 -58 -86 0
2 74 -83 0
-52 -72 -76 0
17 83 84 0
16 -51 -69 0
3 33 -55 0
-5 38 55 0
18 -59 95 0
-60 69 -92 0
-24 -47 -52 0
3 26 -92 0
14 -38 68 0
11 24 -88 0
23 -25 73 0
45 -73 -87 0
6 -11 52 0
-33 -36 81 0
-47 70 76 0
-31 -38 85 0
-17 28 50 0
-3 -34 70 0
2 -27 -74 0
18 -42 68 0
-16 -89 100 0
-35 77 93 0
-6 65 98 0
27 54 98 0
-22 -24 -88 0
-16 24 65 0
56 -72 82 0
13 -16 -89 0
-49 -50 67 0
-5 35 49 0
-29 79 87 0
38 74 -86 0
-37 -84 91 0
-26 45 -60 0
-53 -60 -93 0
2 -9 -16 0
-33 64 83 0
-9 40 -50 0
-68 -74 82 0
30 77 -80 0
-13 -83 89 0
10 -15 -79 0
-25 -36 -78 0
-13 27 -29 0
-2 41 -74 0
-9 -24 -28 0
29 -47 -59 0
23 57 -90 0
29 44 -96 0
-18 28 40 0
2 57 80 0
-65 -86 89 0
-22 -79 -80 0
-7 -13 76 0
-10 29 -71 0
-18 51 -67 0
-3 -19 -36 0
-11 -20 -61 0
57 64 -89 0
-4 43 97 0
-31 -71 87 0
16 -26 -48 0
17 29 -31 0
-15 -42 94 0
-22 55 74 0
27 -47 73 0
-4 -74 -83 0
30 35 -92 0
-9 -59 75 0
10 38 39 0
15 79 100 0
64 89 -93 0
-9 57 -74 0
4 40 -77 0
-42 -81 86 0
28 -30 72 0
-70 76 93 0
-14 -22 -94 0
27 40 -93 0
-64 -71 -82 0
-42 -67 -91 0
2 18 -76 0
-17 -43 70 0
-31 36 70 0
4 -58 72 0
-61 85 96 0
12 54 -95 0
-69 -87 99 0
33 -50 74 0
46 58 60 0
-3 -8 -82 0
7 -84 -85 0
41 -71 -77 0
-83 -86 -92 0
78 92 -93 0
44 -71 -87 0
-4 5 83 0
36 -56 99 0
29 -36 -80 0
-3 79 99 0
-45 -80 -99 0
23 -69 -86 0
29 39 98 0
8 33 85 0
-11 20 63 0
18 20 -65 0
58 92 100 0
-67 77 88 0
52 -57 58 0
54 -55 58 0
40 -47 70 0
17 46 68 0
-18 29 -94 0
-43 68 88 0
-7 -34 54 0
-56 -58 -95 0
-23 31 37 0
4 -12 -66 0
12 79 81 0
33 85 90 0
39 52 -68 0
23 -30 -70 0
-4 -11 -20 0
8 42 -68 0
4 84 98 0
-1 -34 -56 0
4 47 -95 0
-46 82 99 0
14 36 98 0
-44 74 94 0
57 -65 -91 0
42 -90 -99 0
32 -49 -71 0
57 -61 -81 0
-34 80 85 0
23 -29 51 0
5 52 -73 0
-59 66 85 0
40 47 -68 0
43 45 49 0
-21 68 -78 0
43 -73 -96 0
-64 -69 79 0
5 6 15 0
4 -8 -21 0
35 -57 -82 0
-22 49 61 0
35 -43 82 0
4 -24 69 0
-1 2 75 0
-29 61 88 0
8 9 -45 0
33 -56 91 0
38 69 -91 0
22 33 50 0
-39 69 -78 0
-47 -63 -79 0
-47 -72 -86 0
-7 -36 80 0
45 51 68 0
67 91 -95 0
14 52 -72 0
23 92 -100 0
-9 11 -80 0
-14 -97 99 0
36 -47 69 0
-54 -57 97 0
-10 -53 95 0
-44 -52 78 0
54 -75 99 0
10 -21 49 0
5 -52 63 0
3 -28 74 0
6 -35 -48 0
22 -38 52 0
48 66 -99 0
-29 35 -59 0
61 -75 81 0
16 -63 -84 0
5 7 85 0
-24 -31 49 0
-27 -45 -54 0
2 -12 23 0
-11 -40 88 0
-40 53 -97 0
-4 7 39 0
-30 36 -53 0
-22 -26 -94 0
-3 -16 -51 0
-25 -63 100 0
48 64 -82 0
-6 -66 -88 0
88 -94 -97 0
-31 -38 70 0
41 88 95 0
-21 48 62 0
38 50 66 0
-4 5 78 0
27 50 -97 0
45 -66 -88 0
2 -53 96 0
-1 8 -52 0
-5 38 82 0
-58 -77 87 0
7 -42 71 0
-48 -59 -74 0
4 73 -87 0
-58 60 -77 0
-23 37 -68 0
-15 23 -84 0
32 -37 -55 0
19 -62 95 0
23 -37 -87 0
-30 40 51 0
-12 34 40 0
77 97 -98 0
-1 46 -60 0
-8 -57 71 0
-14 79 97 0
4 -50 95 0
27 -44 63 0
4 -26 31 0
59 -62 -87 0
7 8 -28 0
-32 -40 69 0
-12 37 97 0
-11 -36 -83 0
-28 32 73 0
-26 -86 93 0
-25 80 -96 0
68 79 86 0
-42 55 97 0
47 -87 100 0
-13 37 61 0
-5 86 94 0
-46 -76 89 0
51 79 86 0
41 48 -88 0
50 54 64 0
17 -20 -25 0
38 -70 87 0
49 62 -92 0
-43 -59 -75 0
6 86 98 0
17 -18 81 0
9 54 67 0
-26 66 -71 0
29 -58 -67 0
-16 -23 -62 0
-37 -44 100 0
7 -13 34 0
24 -40 -41 0
-34 49 -99 0
11 -76 -81 0
-47 -51 -84 0
-7 -13 21 0
-5 31 -66 0
3 70 71 0
-1 34 50 0
6 43 74 0
-8 -22 -23 0
-67 70 -91 0
31 -65 -95 0
-11 -45 70 0
-2 37 -79 0
75 -80 -96 0
41 51 69 0
-14 87 -96 0
27 -52 91 0
10 56 -58 0
31 48 60 0
79 -84 92 0
-19 87 94 0
39 -73 -80 0
13 -44 -90 0
2 -8 22 0
-57 -67 -74 0
-11 -25 -46 0
7 74 -99 0
-8 -37 92 0
8 40 -41 0
-41 54 57 0
10 69 91 0
-36 74 95 0
-9 -74 75 0
-15 24 59 0
-19 -60 96 0
63 -70 84 0
-6 77 91 0
-26 43 49 0
21 -30 -67 0
-18 58 78 0
20 49 -94 0
3 -76 87 0
-15 53 -93 0
-5 29 -96 0
-36 -91 95 0
-29 71 -82 0
19 46 73 0
22 -43 -46 0
-7 8 -61 0
13 52 -93 0
10 -17 94 0
55 81 82 0
46 47 60 0
-37 47 85 0
16 -45 -60 0
-28 -45 -83 0
-13 75 96 0
-45 71 94 0
-20 56 65 0
-56 81 95 0
1 -88 99 0
34 44 -52 0
42 -48 63 0
19 -21 -99 0
6 59 -82 0
-9 -40 -74 0
15 -26 68 0
33 53 57 0
-11 -19 54 0
16 -24 85 0
52 -79 82 0
-31 -67 -99 0
46 65 98 0
-23 34 -44 0
-2 -85 -91 0
-10 -46 -84 0
72 74 87 0
-1 13 78 0

