c Generated by rand.py 50 250 3 933494
c Generator source: https://github.com/aaw/sat/blob/master/gen/rand.py
p cnf 50 250
18 -19 20 0
1 17 -39 0
24 32 -46 0
-35 45 48 0
-9 13 17 0
-2 6 11 0
5 -21 -39 0
2 -22 32 0
8 25 32 0
-9 -23 38 0
-12 -26 -42 0
-18 -39 -44 0
-1 29 44 0
7 8 -41 0
4 -27 32 0
-13 23 27 0
-1 14 36 0
22 -45 48 0
14 -41 -50 0
-10 23 28 0
-14 16 30 0
-24 27 34 0
27 30 50 0
9 42 47 0
-1 11 -42 0
-29 40 -50 0
-4 -20 37 0
11 31 37 0
9 10 45 0
-13 19 -37 0
-15 26 -47 0
24 -27 -45 0
-11 -13 15 0
-2 -10 34 0
-2 13 16 0
-28 43 50 0
9 -32 38 0
16 -25 41 0
-20 27 44 0
-2 -14 -24 0
7 -28 39 0
3 -4 -30 0
-18 -32 38 0
-35 -41 -49 0
-27 41 -44 0
-30 -38 -47 0
19 -38 -46 0
-15 -35 42 0
11 -15 46 0
-24 34 49 0
-4 -30 48 0
7 -24 26 0
16 -22 50 0
-26 36 49 0
4 10 45 0
10 39 47 0
6 16 -19 0
4 -28 -31 0
-25 -37 49 0
-14 47 -49 0
2 18 -30 0
5 -7 -18 0
25 30 -49 0
2 -7 41 0
-7 29 -40 0
-1 -14 42 0
10 -29 -45 0
-6 -15 -41 0
10 -31 -48 0
-16 21 -27 0
-5 9 -35 0
-13 27 -32 0
-7 -25 -42 0
4 8 -33 0
25 -35 40 0
2 13 46 0
-16 -24 -46 0
2 -23 43 0
15 -23 40 0
11 -27 -39 0
9 -16 35 0
-15 -20 -39 0
28 29 -34 0
-13 24 -40 0
-10 -15 26 0
-6 -31 47 0
-15 -43 50 0
-6 -23 -48 0
-9 -15 -43 0
5 -12 -20 0
2 -26 28 0
-23 -28 -35 0
-12 20 -46 0
-6 -27 31 0
6 29 41 0
14 16 43 0
-9 26 43 0
1 -17 41 0
-3 7 -14 0
33 38 -46 0
22 23 32 0
-33 -43 46 0
17 21 50 0
1 -18 45 0
-27 -30 40 0
-1 -46 -47 0
8 -9 36 0
-36 41 -49 0
25 33 38 0
3 17 -32 0
-16 26 45 0
-7 -37 43 0
-3 15 -28 0
-21 -34 -45 0
-7 20 -21 0
3 20 25 0
12 -15 23 0
22 -29 45 0
22 46 50 0
-22 38 -40 0
1 8 42 0
-4 43 46 0
-18 -32 41 0
6 -18 25 0
16 -25 -33 0
-20 -21 -30 0
31 -39 47 0
-10 -19 -49 0
-1 28 47 0
3 -31 38 0
-8 26 -30 0
-23 31 -36 0
13 16 36 0
16 -31 46 0
-9 -18 29 0
41 -45 50 0
-24 -26 -33 0
8 29 -44 0
-11 -17 -27 0
7 -17 -27 0
7 -8 46 0
26 28 49 0
17 31 -32 0
-3 -8 28 0
32 35 -45 0
-10 -41 -43 0
-9 -21 46 0
26 30 48 0
-17 32 40 0
8 -14 -37 0
9 -13 -42 0
-26 -32 38 0
27 29 -33 0
-4 -9 37 0
-4 -23 40 0
-30 38 39 0
-5 -6 -23 0
6 -32 35 0
4 24 -28 0
-3 -45 47 0
-2 7 -38 0
-13 -37 50 0
4 36 -38 0
-9 29 -39 0
-5 -24 31 0
3 -11 -20 0
20 39 -49 0
-6 -28 -45 0
1 15 40 0
-19 -25 34 0
11 12 -27 0
-9 -37 45 0
-24 28 45 0
7 -25 -45 0
1 16 22 0
11 -15 47 0
3 -42 44 0
-7 -44 49 0
13 14 -49 0
-5 -9 -44 0
-7 22 -49 0
2 15 49 0
7 22 25 0
-9 22 35 0
19 33 -42 0
5 24 36 0
-1 -44 48 0
-1 9 -29 0
9 -36 49 0
3 33 37 0
-23 -38 -39 0
7 -23 -44 0
-7 -17 46 0
12 26 36 0
3 -4 6 0
-6 -28 41 0
4 -39 45 0
-3 21 -32 0
-15 -31 -33 0
-10 32 -34 0
-5 -18 -37 0
-19 -21 25 0
-7 11 -37 0
7 17 18 0
-2 -12 -24 0
-14 15 -45 0
25 -32 47 0
-24 35 -50 0
-1 11 22 0
34 36 42 0
12 16 39 0
5 -6 -32 0
-14 35 42 0
-16 -31 45 0
-4 -9 42 0
6 11 -46 0
26 33 -46 0
7 8 39 0
-9 -32 42 0
2 -13 -34 0
-2 -21 49 0
-2 29 -42 0
27 -36 -39 0
-10 23 31 0
-16 17 29 0
-2 -30 -43 0
14 -24 42 0
-28 -37 39 0
-1 10 12 0
2 31 -49 0
-1 -2 47 0
17 44 48 0
10 13 -28 0
-11 -21 -26 0
-10 -28 -42 0
29 39 50 0
-30 -34 -43 0
8 14 36 0
16 -27 38 0
-10 35 44 0
21 42 46 0
-34 41 45 0
15 -34 35 0
-12 -13 16 0
-17 25 -28 0
21 23 44 0
-19 30 -35 0
-1 -8 -21 0
6 -18 39 0
10 -33 41 0

