c Generated by rand.py 50 250 3 856496
c Generator source: https://github.com/aaw/sat/blob/master/gen/rand.py
p cnf 50 250
2 26 -28 0
7 18 -19 0
29 45 -49 0
-2 43 -44 0
6 8 -23 0
5 19 30 0
7 22 50 0
-20 -38 42 0
9 -10 28 0
-16 -23 -28 0
14 15 -25 0
-25 -27 -42 0
4 20 40 0
-22 -29 47 0
16 28 -31 0
-3 29 34 0
8 19 -50 0
23 42 45 0
32 34 -46 0
-5 24 -25 0
16 34 -47 0
-21 23 -38 0
-9 -42 -44 0
5 23 -44 0
-5 -36 47 0
5 26 27 0
7 20 46 0
-10 -24 41 0
4 -20 48 0
-7 26 48 0
13 -23 -26 0
-9 11 33 0
-8 -28 -34 0
-35 37 45 0
-12 -28 -38 0
-14 27 35 0
-6 -10 30 0
17 31 46 0
2 -4 39 0
25 -41 -50 0
11 14 19 0
13 19 38 0
-3 4 -21 0
13 -17 -27 0
14 -23 -28 0
38 39 -46 0
13 -15 -50 0
19 -33 -34 0
-9 24 47 0
-38 -45 -46 0
6 9 -41 0
19 -39 48 0
3 42 45 0
23 26 -37 0
-23 -35 -36 0
6 33 36 0
30 40 -41 0
-2 -6 -14 0
-6 -12 36 0
13 19 27 0
-6 38 -46 0
-17 -27 -37 0
-9 30 -46 0
-28 44 -48 0
-10 -12 41 0
4 -23 31 0
7 41 -49 0
4 -32 36 0
-13 -20 -48 0
15 19 -35 0
40 -46 48 0
5 -10 -47 0
-2 -24 41 0
7 12 -36 0
3 13 14 0
5 -45 -46 0
29 45 -48 0
5 9 44 0
14 19 29 0
16 -32 46 0
-7 15 27 0
21 -22 -44 0
-18 21 -49 0
-17 40 -44 0
-12 20 30 0
-1 20 47 0
-8 29 -38 0
29 -38 -40 0
18 38 48 0
16 33 -35 0
-13 -16 -19 0
15 37 45 0
-1 28 -37 0
-15 -27 48 0
-11 36 42 0
13 -22 -33 0
10 21 34 0
-27 -29 45 0
-21 -33 -44 0
-29 43 -50 0
3 21 42 0
40 46 47 0
-18 -41 -46 0
-16 27 -39 0
-1 29 -47 0
7 25 32 0
33 -38 -41 0
17 -19 21 0
-6 -18 -33 0
-7 -42 -47 0
-32 40 44 0
-13 27 39 0
10 23 34 0
11 17 -41 0
-1 -15 41 0
-6 -24 42 0
-20 -22 -48 0
-12 33 -44 0
16 37 -41 0
28 -29 40 0
-5 -19 44 0
-9 -35 43 0
2 -23 -34 0
-20 -32 41 0
38 -44 -45 0
-11 -27 -46 0
14 27 -48 0
-9 21 -49 0
-17 -43 45 0
3 -34 -38 0
-18 21 39 0
-44 -47 49 0
18 -36 49 0
18 20 -22 0
33 37 -38 0
7 34 -48 0
-15 37 39 0
3 -41 -45 0
-6 18 -48 0
-27 -28 -40 0
17 38 44 0
-22 -30 43 0
-2 -43 -44 0
6 33 47 0
-8 -15 34 0
1 -18 38 0
-15 -20 -22 0
2 35 -49 0
3 29 -47 0
14 39 44 0
-1 -30 33 0
-3 -9 39 0
-5 7 28 0
-28 -30 -38 0
-22 30 -39 0
-20 27 34 0
21 -26 -47 0
-2 28 -38 0
15 36 -37 0
-17 -21 30 0
37 42 -43 0
-21 33 -38 0
28 32 -38 0
-20 24 30 0
13 28 -50 0
17 -33 39 0
7 29 34 0
14 19 48 0
5 -32 -49 0
-11 26 48 0
-8 -27 50 0
-2 15 -38 0
-2 -8 -33 0
2 14 30 0
-10 -26 38 0
12 -42 -50 0
12 42 -50 0
-14 44 -47 0
3 8 -12 0
-31 -32 48 0
22 27 32 0
-8 29 -47 0
9 -19 -36 0
13 24 50 0
-1 -32 47 0
-15 34 -42 0
-4 -8 30 0
-2 12 -28 0
-4 38 -48 0
6 8 -49 0
10 19 47 0
-13 36 46 0
-3 31 -42 0
-31 -44 50 0
27 34 38 0
14 30 -43 0
-3 -31 -42 0
44 45 -48 0
15 -28 30 0
11 15 -17 0
-12 22 -35 0
2 -11 31 0
-20 -27 -36 0
15 26 -33 0
21 35 -43 0
-16 -32 39 0
-14 -36 -47 0
11 13 -39 0
-9 28 -38 0
3 -21 39 0
-3 44 -48 0
2 -36 49 0
-5 -14 -19 0
-10 -15 -43 0
9 28 32 0
2 37 45 0
18 -23 40 0
5 -29 -47 0
-26 29 -47 0
-9 -13 50 0
22 29 40 0
-3 -25 -36 0
6 12 49 0
-20 45 47 0
2 -3 40 0
8 12 29 0
-21 -25 31 0
17 -24 -39 0
-18 -33 50 0
-15 -22 -50 0
8 -30 -37 0
16 -24 39 0
-18 20 -36 0
5 -16 18 0
6 -34 38 0
4 28 -38 0
5 39 47 0
-18 -43 -44 0
-6 -12 -28 0
-12 -25 26 0
-6 -38 41 0
-8 -19 47 0
8 41 44 0
-19 -42 -48 0
4 -13 -16 0
-20 -21 35 0
9 -23 50 0
2 -12 -46 0
18 -25 -39 0
-4 -24 42 0

