c Generated by rand.py 75 375 3 935029
c Generator source: https://github.com/aaw/sat/blob/master/gen/rand.py
p cnf 75 375
-29 38 69 0
2 10 71 0
-21 -55 65 0
39 -63 -66 0
3 -28 -36 0
44 63 72 0
28 30 65 0
2 -15 26 0
-8 -28 -37 0
-16 19 -62 0
-29 30 53 0
-7 45 75 0
11 -30 -59 0
4 49 -70 0
16 36 58 0
2 45 -51 0
-7 32 71 0
-16 19 27 0
22 38 -58 0
-31 32 73 0
-48 63 -64 0
-13 -57 75 0
-32 -64 70 0
33 43 72 0
-7 -59 74 0
-13 19 25 0
19 24 -60 0
-1 -27 -43 0
6 -37 -38 0
-27 30 -68 0
-25 39 45 0
-2 3 -75 0
24 56 73 0
44 -57 58 0
-6 -28 -60 0
12 -54 58 0
32 -65 -68 0
5 21 62 0
-21 -23 28 0
-10 -28 49 0
-2 -34 -48 0
-9 -34 75 0
3 20 22 0
6 35 -64 0
4 32 41 0
22 26 74 0
-40 -55 -61 0
7 -66 -67 0
6 54 55 0
-39 -45 -50 0
16 -70 -75 0
49 -50 58 0
19 -59 71 0
-14 19 22 0
35 53 62 0
-4 39 73 0
8 -60 -74 0
28 34 -55 0
-12 -51 -68 0
53 58 60 0
-51 -58 67 0
18 63 -75 0
-11 -18 -19 0
20 26 -37 0
-10 -37 47 0
3 23 -37 0
-41 53 -73 0
20 -38 -71 0
-30 53 64 0
2 8 -36 0
-9 17 -37 0
-34 -56 -64 0
-28 35 58 0
47 67 72 0
-18 55 69 0
-10 -13 -67 0
-10 -34 40 0
-39 47 51 0
43 -57 75 0
-17 31 39 0
-7 21 -44 0
-12 39 -41 0
-15 16 68 0
-25 30 -59 0
28 -29 46 0
36 45 -65 0
-17 -30 -75 0
-13 24 -29 0
6 -13 44 0
-11 44 -74 0
-58 -72 -73 0
-9 -17 -60 0
24 -33 -59 0
39 40 57 0
-24 -55 60 0
1 9 -54 0
48 58 -71 0
7 -8 67 0
36 -40 55 0
24 -40 -70 0
-34 40 -72 0
5 -21 -58 0
-27 41 51 0
-8 20 -71 0
11 30 31 0
-21 32 62 0
-39 -57 -75 0
-25 -64 -75 0
-20 26 70 0
33 -37 44 0
27 32 -63 0
-24 -49 51 0
39 43 -49 0
-1 -6 -12 0
-3 69 -70 0
19 -43 63 0
-25 -52 -65 0
-6 12 -36 0
47 56 -59 0
43 -53 -72 0
18 37 -47 0
-3 -58 -62 0
29 -38 -54 0
3 -58 70 0
28 40 -56 0
-28 38 60 0
-1 11 44 0
-36 55 74 0
8 15 -54 0
15 -46 49 0
26 -44 52 0
5 -36 61 0
19 -61 -72 0
5 -14 -18 0
-21 -26 48 0
3 -10 -22 0
-14 -18 69 0
-23 -63 -69 0
-19 -65 71 0
4 30 -46 0
17 -54 -70 0
17 49 -54 0
18 -22 32 0
29 45 48 0
-40 47 -63 0
6 23 -59 0
9 -18 -57 0
-3 19 53 0
-45 -63 65 0
10 36 39 0
-6 -19 -49 0
-12 -68 -70 0
33 36 -72 0
-58 -60 -61 0
-32 33 71 0
-18 39 41 0
6 8 72 0
39 -48 50 0
51 -53 54 0
-9 -36 62 0
-18 -47 71 0
20 -31 59 0
28 -43 -72 0
20 -70 -75 0
-1 -17 -22 0
-3 -28 61 0
9 14 37 0
5 -28 -44 0
-8 24 -27 0
-7 -30 -31 0
9 -16 49 0
-32 59 -60 0
9 18 -42 0
-27 30 44 0
-13 15 29 0
-44 -55 72 0
7 -58 60 0
10 25 -34 0
8 29 30 0
-40 -60 -66 0
-21 53 -55 0
-14 23 -50 0
5 -6 29 0
-14 28 -66 0
-2 8 26 0
-27 -42 46 0
-44 50 -67 0
-3 -57 61 0
-16 -19 27 0
-52 53 61 0
1 15 -50 0
-7 18 -25 0
-32 -42 -71 0
-10 34 -55 0
-31 51 71 0
45 64 -74 0
45 -56 -73 0
-27 -39 40 0
39 50 67 0
3 -25 -29 0
24 -58 -69 0
-3 31 55 0
-4 62 66 0
22 24 70 0
-9 -45 -74 0
-33 46 59 0
-37 -56 -63 0
12 -64 -70 0
-6 -22 -44 0
-20 25 39 0
-3 38 -61 0
-2 17 55 0
-17 23 70 0
-42 -47 -68 0
-37 62 -75 0
38 58 -63 0
6 22 -49 0
3 41 -60 0
-1 -44 -53 0
-32 -46 -48 0
-29 37 -49 0
-31 46 68 0
34 -36 -47 0
-31 -52 69 0
-35 -40 -68 0
4 27 58 0
5 15 36 0
23 -60 74 0
-3 -22 -31 0
13 -42 46 0
-3 70 -75 0
18 -19 66 0
-22 -39 -56 0
1 10 -36 0
3 -9 -53 0
-16 19 -73 0
-3 5 59 0
-40 -42 60 0
8 60 73 0
-6 -16 -31 0
-27 63 -66 0
-1 -19 -31 0
23 35 60 0
32 -39 -61 0
10 -37 -44 0
-14 28 -64 0
20 38 63 0
34 -44 -60 0
-3 15 60 0
-4 -6 -71 0
-28 -74 75 0
34 41 -70 0
-10 22 61 0
-16 32 52 0
48 -64 -72 0
10 27 42 0
52 -65 72 0
42 -66 69 0
-18 38 -71 0
-42 54 70 0
5 -36 44 0
26 29 -30 0
33 -69 -75 0
-16 36 -55 0
35 -57 65 0
7 -55 60 0
53 -57 -65 0
10 -22 -26 0
10 -14 -22 0
-22 47 -49 0
-52 -70 71 0
-19 41 -70 0
5 -8 62 0
37 -48 60 0
16 28 -31 0
-10 36 64 0
-5 41 -67 0
38 58 75 0
28 29 -72 0
-32 -36 -75 0
-7 -34 59 0
34 -50 72 0
-15 -34 36 0
-6 12 35 0
50 -51 57 0
-50 67 73 0
8 10 15 0
-7 -57 -60 0
-15 40 43 0
44 61 -70 0
38 47 62 0
24 27 -53 0
-6 27 -32 0
-9 20 -34 0
11 -53 -59 0
22 -30 -44 0
-4 -28 44 0
-28 39 -63 0
6 -50 -60 0
18 -34 44 0
-1 -47 48 0
37 49 68 0
7 -10 -51 0
30 35 36 0
10 34 43 0
28 -44 -45 0
20 -61 63 0
21 -60 -65 0
22 27 72 0
-35 -42 50 0
7 31 -65 0
1 40 72 0
-1 33 -47 0
21 34 49 0
-20 -44 -51 0
34 42 -43 0
39 -65 -72 0
-1 30 -42 0
2 -4 -32 0
-13 24 -35 0
41 55 -65 0
19 -47 -62 0
36 -40 74 0
-21 32 -67 0
47 56 -62 0
20 -39 -54 0
-30 -66 75 0
-55 62 -69 0
-1 5 -21 0
-1 -33 -48 0
2 44 -72 0
-25 -34 -71 0
-5 -31 -57 0
45 59 -70 0
27 70 73 0
38 55 -63 0
10 -19 -39 0
-4 -24 75 0
17 23 29 0
35 -58 74 0
-27 -58 -72 0
10 -66 -68 0
-20 -28 37 0
-15 33 36 0
-1 5 66 0
-7 13 -25 0
-3 -23 71 0
6 -16 24 0
42 47 -54 0
-11 -59 71 0
-11 51 65 0
-5 -39 -54 0
3 15 64 0
3 33 52 0
9 -31 75 0
-13 50 -69 0
-23 -43 -66 0
-28 -33 -61 0
11 49 -59 0
7 48 -57 0
9 47 -62 0
-29 46 -73 0
-9 -69 74 0
25 37 67 0
-23 -43 -57 0
16 21 33 0
5 -18 -35 0
49 54 57 0
-27 42 -52 0
15 23 -52 0
4 20 -24 0
31 -34 -67 0
-12 -67 -70 0
43 -59 -73 0
-47 -56 -66 0

