c Generated by rand.py 100 500 3 953973
c Generator source: https://github.com/aaw/sat/blob/master/gen/rand.py
p cnf 100 500
-37 -40 -44 0
-1 23 53 0
7 -13 -100 0
-4 46 -100 0
-59 66 79 0
1 11 62 0
17 32 82 0
-17 88 -95 0
13 -35 43 0
-15 -60 -76 0
-20 -56 64 0
-6 46 -97 0
36 57 59 0
17 -55 61 0
-30 67 100 0
1 -96 99 0
-5 -43 93 0
-57 -76 86 0
-63 72 -94 0
7 65 79 0
21 42 -80 0
-84 -86 91 0
13 -65 91 0
-9 -87 -94 0
30 -66 77 0
-7 14 78 0
23 56 92 0
-13 -58 -78 0
-28 -43 67 0
-24 -45 72 0
17 -45 97 0
43 68 84 0
28 82 83 0
-17 -67 90 0
21 -37 -48 0
-31 -85 -88 0
-64 97 100 0
-47 -70 91 0
74 -91 99 0
39 -56 97 0
-35 43 -59 0
11 -25 -75 0
-33 -76 -85 0
-48 93 -95 0
-30 86 -92 0
40 -64 -94 0
-13 29 41 0
19 20 -26 0
-6 18 92 0
-11 -25 -85 0
6 38 48 0
-31 71 84 0
-4 -23 -79 0
-10 -82 90 0
-39 -48 49 0
-20 63 79 0
22 27 -66 0
48 79 100 0
-7 23 -66 0
-29 -60 70 0
-38 58 -59 0
-20 -23 33 0
-22 -29 -45 0
-22 -41 93 0
44 78 89 0
29 -42 -50 0
24 76 98 0
24 69 95 0
-21 76 91 0
49 -80 -97 0
46 50 -100 0
29 36 -65 0
-41 -56 -85 0
21 -59 -90 0
33 -41 -62 0
-34 78 96 0
-12 81 -87 0
-25 -65 -94 0
-6 -27 -98 0
-43 -85 88 0
17 75 -100 0
3 -57 -68 0
61 88 95 0
51 -61 82 0
1 -61 -95 0
-7 -19 -50 0
14 -25 98 0
8 17 32 0
-31 81 96 0
58 -70 99 0
-36 57 100 0
-2 28 -72 0
10 45 90 0
25 -45 61 0
16 35 -87 0
22 29 -41 0
-34 54 -78 0
5 58 -74 0
-44 55 94 0
-36 45 -99 0
-40 -65 67 0
6 -45 -78 0
53 67 86 0
-35 62 78 0
-11 22 -60 0
-2 -82 87 0
8 63 -65 0
-44 -55 -88 0
9 -23 53 0
-54 -58 -97 0
46 -75 90 0
-54 60 -67 0
-40 -78 90 0
-18 48 -70 0
41 67 -82 0
74 96 97 0
32 38 -70 0
86 -96 -99 0
-7 9 -57 0
-1 -13 39 0
16 -23 -59 0
-20 -37 94 0
12 55 76 0
41 -58 73 0
6 -21 39 0
-7 60 78 0
19 44 87 0
-5 25 -76 0
1 -34 54 0
6 48 87 0
10 73 -80 0
6 -32 50 0
2 -15 -79 0
5 23 83 0
-29 91 92 0
-45 -90 94 0
10 -15 -95 0
-51 60 -91 0
32 -59 78 0
-40 43 71 0
14 79 -91 0
1 -2 38 0
2 -13 79 0
-44 -93 -94 0
22 -53 -91 0
-56 -79 86 0
55 65 -75 0
-31 -98 -99 0
13 -23 -98 0
5 12 -71 0
7 -23 -33 0
36 -38 85 0
-23 39 -74 0
3 55 68 0
34 40 89 0
15 29 61 0
17 -40 90 0
-2 29 74 0
-29 -47 71 0
43 -53 55 0
-29 47 -94 0
38 -69 77 0
12 -39 73 0
9 37 60 0
51 62 -89 0
1 -38 -70 0
75 -95 -98 0
-1 -24 -56 0
-55 85 -87 0
-10 -70 -78 0
11 45 96 0
-25 -36 99 0
33 42 -65 0
-18 -89 94 0
1 18 -35 0
45 -75 95 0
-24 95 99 0
-7 -25 -49 0
-3 23 82 0
22 31 33 0
56 -79 -88 0
-36 -60 79 0
-31 -75 83 0
-24 -78 -88 0
26 40 69 0
-11 26 41 0
-15 -27 33 0
-41 48 83 0
24 -66 -89 0
38 73 76 0
-15 -65 69 0
5 32 -69 0
-19 -73 -87 0
-23 -28 -100 0
-71 -97 -99 0
11 -95 99 0
24 -27 -97 0
42 83 97 0
61 63 -86 0
-32 -73 84 0
24 64 -88 0
-11 89 -95 0
-9 14 47 0
8 -71 -74 0
-31 52 -89 0
-14 -27 50 0
56 65 -86 0
-31 -55 -75 0
-28 30 85 0
-2 21 55 0
-9 -35 46 0
17 45 -95 0
-20 -68 -72 0
-20 25 84 0
-39 -61 -82 0
-9 71 -95 0
1 -63 -99 0
-30 53 -68 0
-43 -65 94 0
-2 52 94 0
-35 -84 -88 0
-19 30 31 0
-30 40 -64 0
56 63 -71 0
-29 -51 96 0
55 76 -89 0
26 45 -72 0
-25 36 62 0
28 -50 72 0
49 -61 -73 0
5 -9 11 0
-17 40 -95 0
2 25 -81 0
13 -18 21 0
-56 74 -82 0
-14 66 -88 0
-9 -37 95 0
-23 33 58 0
-3 -40 -78 0
15 34 70 0
-21 -36 -57 0
7 -26 76 0
-12 -28 98 0
-12 -52 56 0
2 -31 -70 0
34 75 89 0
-7 -76 79 0
16 36 -70 0
25 58 -96 0
46 80 -94 0
50 56 -91 0
-26 28 -100 0
28 -33 -62 0
42 44 80 0
23 32 44 0
4 50 87 0
16 71 93 0
27 52 -87 0
-19 -53 83 0
-21 -46 -71 0
27 71 76 0
-7 29 -37 0
-23 52 72 0
43 73 93 0
2 -26 52 0
-22 -70 88 0
25 -39 -42 0
17 -39 -98 0
19 -59 -62 0
-7 -83 -97 0
28 32 74 0
31 56 90 0
14 23 67 0
13 44 -50 0
-42 -56 74 0
-30 42 -59 0
47 -50 -59 0
21 23 -98 0
31 -66 95 0
-5 18 93 0
-17 32 -43 0
15 -45 74 0
-1 40 91 0
20 -25 82 0
12 -28 -57 0
-7 -20 96 0
28 -53 -65 0
40 -51 69 0
3 15 98 0
28 -64 99 0
-49 64 -77 0
10 58 60 0
21 -73 94 0
6 78 85 0
8 -12 52 0
-52 90 -100 0
-25 -89 -100 0
-8 -31 43 0
12 -30 -34 0
35 -50 67 0
-34 65 74 0
15 -34 -74 0
8 15 -63 0
2 14 -63 0
20 68 -90 0
-3 -64 -72 0
-14 -24 76 0
8 -43 52 0
-3 14 57 0
-12 63 73 0
24 -90 -96 0
64 -71 -85 0
-52 -79 100 0
71 79 92 0
-12 -24 -62 0
41 -66 96 0
30 -41 -73 0
-27 -43 -65 0
2 -72 73 0
-3 20 79 0
-46 55 -97 0
-6 -63 92 0
-23 64 84 0
-8 39 -41 0
-39 62 92 0
-5 -55 74 0
66 -77 99 0
-38 41 46 0
41 44 48 0
14 74 -100 0
19 24 92 0
-17 -26 -99 0
-6 -62 66 0
56 94 -99 0
-5 -49 -60 0
-5 -82 -84 0
-10 -39 -80 0
10 -12 70 0
-23 52 -100 0
39 -48 71 0
-14 -89 95 0
4 -5 20 0
-3 -81 93 0
44 71 88 0
-72 -77 82 0
-24 29 -83 0
-24 72 -91 0
36 -42 97 0
-29 67 -72 0
-34 90 96 0
52 64 -88 0
35 -37 52 0
2 28 -87 0
25 40 66 0
-34 -53 -66 0
19 -58 97 0
-38 -60 -100 0
61 -86 -99 0
8 -91 93 0
-30 66 90 0
-16 -19 28 0
8 25 -88 0
27 -41 63 0
-17 26 -73 0
-5 -25 70 0
-38 69 -95 0
28 -38 -46 0
-9 -11 85 0
-22 -28 -68 0
66 -80 -95 0
11 32 35 0
75 79 80 0
33 36 -45 0
38 -78 -85 0
-16 -18 -95 0
6 -48 55 0
-20 -23 69 0
-1 53 59 0
-15 16 -17 0
-6 9 53 0
23 37 -80 0
-7 -11 -52 0
-12 -39 48 0
-23 -41 98 0
20 50 -95 0
-63 -64 98 0
-46 -57 58 0
-14 -33 81 0
-25 -54 -74 0
-11 -51 74 0
5 -45 -98 0
41 58 -68 0
2 -41 98 0
-13 55 -71 0
22 41 98 0
3 -68 82 0
6 89 -92 0
-5 52 -91 0
-25 35 -85 0
-29 -67 -98 0
-27 29 60 0
5 -75 -96 0
-60 75 97 0
11 42 62 0
19 -31 -45 0
14 -18 -42 0
-9 -18 43 0
-22 -32 -49 0
42 -45 80 0
-25 -58 -73 0
39 45 78 0
-2 66 -79 0
51 56 63 0
8 -29 93 0
-6 -13 60 0
4 5 -92 0
13 -64 71 0
3 -17 63 0
-71 73 -81 0
3 -66 -68 0
-12 -28 53 0
-56 61 -78 0
40 59 89 0
-73 79 -97 0
-1 -3 -66 0
4 38 46 0
-1 -7 39 0
18 33 -84 0
25 73 -78 0
-22 -32 -43 0
5 15 53 0
41 47 63 0
7 25 -62 0
13 -56 88 0
-2 94 99 0
73 77 -78 0
1 19 -72 0
-28 30 -85 0
64 -67 70 0
23 72 98 0
-17 48 -65 0
-21 -43 -64 0
-49 -65 -74 0
26 -53 -83 0
-23 35 54 0
8 -36 -76 0
-31 -91 94 0
-3 20 38 0
30 -73 83 0
16 -68 100 0
-54 -67 92 0
8 -19 -22 0
-13 16 45 0
-11 -50 66 0
35 59 61 0
-26 -47 -63 0
18 26 27 0
-4 12 -23 0
-22 -31 65 0
-47 -56 -77 0
-76 -78 -97 0
2 35 83 0
32 87 -99 0
31 -46 -86 0
-37 -48 66 0
20 -26 62 0
-15 59 65 0
41 -44 -48 0
-51 -62 -75 0
17 56 -57 0
12 32 55 0
-36 -49 79 0
21 42 82 0
-36 56 -79 0
-43 -49 -100 0
12 -57 84 0
-4 30 39 0
-6 -75 77 0
-18 27 28 0
3 -63 90 0
-15 81 100 0
22 67 -87 0
-15 -74 -86 0
40 -52 -94 0
-27 42 -93 0
-14 -23 83 0
15 -66 70 0
-32 48 77 0
2 7 -83 0
-36 51 -79 0
-18 48 -79 0
-37 39 -96 0
-35 -72 -77 0
-28 70 73 0
-12 17 -71 0
12 -41 61 0
-16 -30 -85 0
3 79 -86 0
-33 -66 72 0
-13 -38 97 0

