c Generated by rand.py 50 250 3 733260
c Generator source: https://github.com/aaw/sat/blob/master/gen/rand.py
p cnf 50 250
9 13 50 0
-19 -38 -41 0
11 22 -35 0
4 -33 35 0
-8 -16 29 0
-6 42 -45 0
18 -22 -37 0
3 -20 -29 0
11 38 -50 0
-6 -41 -47 0
-4 -14 18 0
4 -7 41 0
3 30 40 0
15 -19 -22 0
4 29 -35 0
7 -22 32 0
10 -49 -50 0
-4 -5 47 0
-12 -16 45 0
-3 17 49 0
-5 -13 -31 0
-28 31 41 0
-16 34 47 0
3 4 36 0
7 -29 43 0
5 25 -43 0
33 -43 -50 0
-18 -26 -38 0
1 25 45 0
3 30 32 0
16 -27 44 0
5 39 -49 0
-20 -35 -45 0
22 28 -49 0
-14 36 -48 0
11 27 -50 0
-28 36 44 0
-12 20 -48 0
-4 10 -47 0
-1 -30 45 0
-11 -26 29 0
-28 -40 -49 0
10 32 36 0
12 -39 -45 0
-2 -9 26 0
-5 27 42 0
-11 -23 -35 0
7 -21 22 0
5 31 -44 0
-19 -31 -39 0
-25 -48 49 0
3 -29 32 0
3 -41 47 0
-1 33 47 0
11 23 33 0
-10 28 48 0
4 5 31 0
13 -18 42 0
-10 46 -50 0
5 46 -50 0
-14 31 -36 0
-3 -24 -27 0
5 8 19 0
-13 32 -48 0
-4 -12 45 0
28 35 38 0
6 19 27 0
5 -9 33 0
28 38 45 0
8 17 42 0
-4 9 -44 0
11 12 46 0
9 18 25 0
-27 -29 -50 0
-29 47 -48 0
-3 6 20 0
26 38 -43 0
7 -36 -50 0
26 39 42 0
10 23 26 0
18 25 40 0
-1 2 9 0
5 6 -46 0
9 11 -35 0
-16 28 -32 0
8 26 30 0
4 -20 -44 0
6 34 -48 0
17 21 36 0
9 -12 34 0
-15 -38 -44 0
-6 -30 32 0
7 -16 40 0
5 17 38 0
14 31 45 0
-29 36 48 0
15 -41 -42 0
-1 -32 -35 0
-1 12 -41 0
12 38 -43 0
9 -18 -45 0
-25 -30 -47 0
-10 38 -47 0
25 -31 -32 0
-21 -30 42 0
-14 -29 43 0
-1 -6 -14 0
3 -27 -28 0
8 16 30 0
21 -29 31 0
2 -12 41 0
-15 38 -39 0
3 18 -29 0
-23 37 -38 0
-13 23 36 0
-7 -30 50 0
13 20 21 0
-6 -26 49 0
-9 33 42 0
5 9 23 0
14 22 50 0
13 25 49 0
-20 -35 37 0
-25 36 -41 0
26 -35 36 0
-16 39 -42 0
-15 -20 -37 0
-11 16 29 0
10 -33 -48 0
9 -18 30 0
4 5 50 0
-27 -32 36 0
-3 -4 44 0
-3 -4 -48 0
3 -22 31 0
-11 19 -21 0
-18 -20 36 0
23 -38 -41 0
-11 -17 -23 0
-16 39 44 0
26 -35 -45 0
18 -23 -25 0
-5 10 -36 0
-11 12 35 0
-9 -10 21 0
-6 -27 -49 0
14 -28 -44 0
-2 -3 -35 0
27 -38 39 0
15 31 -36 0
-13 -23 37 0
-11 34 -43 0
8 36 -49 0
5 -15 45 0
-1 -13 -26 0
-13 -18 -27 0
29 -35 -49 0
2 38 41 0
-3 10 43 0
-18 -21 40 0
16 -31 46 0
-36 40 41 0
27 -37 39 0
-8 10 26 0
-16 24 39 0
11 -30 50 0
-28 29 -41 0
-3 -26 29 0
-6 -38 44 0
23 -39 42 0
-8 -19 -21 0
7 -41 -47 0
7 -14 24 0
6 -25 27 0
4 -17 50 0
6 29 42 0
-25 39 46 0
29 -31 -44 0
28 -38 43 0
11 26 50 0
14 -17 29 0
-24 -30 31 0
-10 17 -42 0
29 32 40 0
18 -27 30 0
32 -37 38 0
-18 27 -46 0
8 -9 32 0
-6 30 37 0
-23 35 -47 0
-2 24 47 0
-19 25 39 0
15 -16 21 0
2 -12 -21 0
-16 42 50 0
11 -15 16 0
-31 33 -49 0
-7 29 -31 0
-2 14 17 0
-2 -31 41 0
-16 44 50 0
-19 -37 43 0
-14 24 31 0
-5 11 -20 0
4 -14 42 0
-14 -21 -48 0
15 -41 46 0
12 -22 -37 0
26 32 34 0
-1 5 45 0
21 -26 -39 0
-10 31 43 0
-8 -19 34 0
3 -17 40 0
-16 25 38 0
6 -30 -40 0
-2 27 -48 0
-16 40 -50 0
5 -40 46 0
36 -42 -47 0
8 9 39 0
-7 -22 50 0
-3 -18 -48 0
-2 20 34 0
11 -38 -39 0
-18 -36 -43 0
1 -18 -30 0
19 -25 27 0
13 -16 -31 0
21 22 40 0
-6 -24 46 0
1 13 -41 0
-11 24 -42 0
2 -11 -40 0
-1 12 33 0
-16 -25 -46 0
2 -3 -22 0
-19 -20 30 0
3 -24 -25 0
8 19 -24 0
-24 28 43 0
20 -31 42 0
-11 -18 -41 0
13 -20 36 0
-31 -38 42 0
10 -29 44 0
20 -40 42 0
4 20 -29 0
1 38 48 0
-20 -27 -47 0

