c Generated by rand.py 75 375 3 837245
c Generator source: https://github.com/aaw/sat/blob/master/gen/rand.py
p cnf 75 375
9 -51 53 0
-15 -45 -67 0
3 -12 -74 0
10 46 62 0
-20 -28 75 0
19 -45 -48 0
-7 -8 63 0
-4 -18 -63 0
8 61 -62 0
33 36 -43 0
6 -30 69 0
24 -34 39 0
-6 -16 74 0
43 -46 63 0
-24 -58 64 0
32 -45 68 0
2 39 43 0
-13 35 -74 0
1 -34 36 0
-19 -25 26 0
6 67 -72 0
21 40 -56 0
30 -53 -54 0
-34 46 50 0
14 -39 40 0
-23 -31 -49 0
-7 -23 -25 0
20 -39 59 0
14 24 27 0
-12 -22 -62 0
-38 55 58 0
-24 26 -52 0
-29 -46 -69 0
-35 40 -41 0
-4 -19 -32 0
16 65 73 0
7 12 63 0
18 -19 -32 0
32 -45 49 0
21 43 59 0
-6 15 72 0
-5 -70 -73 0
-16 -28 67 0
-4 -36 -52 0
-20 -27 -31 0
7 15 -63 0
3 -9 12 0
20 -21 72 0
-59 65 -70 0
4 -7 45 0
25 31 -55 0
2 -9 18 0
31 -56 63 0
-2 51 61 0
49 51 -68 0
-25 51 63 0
-33 41 64 0
21 -62 75 0
-23 71 -73 0
-36 51 65 0
9 -39 -48 0
-48 -51 -61 0
16 -28 40 0
-8 30 -39 0
-3 -21 35 0
-3 -41 66 0
-3 56 -61 0
7 23 30 0
-21 32 47 0
4 39 72 0
-18 -49 -55 0
-7 29 -35 0
-5 -16 -53 0
36 -39 -56 0
-8 -19 -64 0
-36 55 -69 0
13 -34 75 0
27 -49 52 0
19 29 38 0
-34 64 -71 0
-3 -21 74 0
-5 24 -38 0
18 -23 33 0
17 50 -54 0
30 51 -66 0
8 -28 -33 0
33 -45 72 0
35 -54 58 0
17 36 -45 0
-6 -13 -75 0
-6 17 35 0
46 55 59 0
36 40 -50 0
4 -6 38 0
-29 -30 41 0
39 -40 -71 0
-54 -69 70 0
27 30 -63 0
-29 -56 62 0
-19 28 -33 0
32 50 51 0
-18 -35 -72 0
11 -24 67 0
-13 -43 -75 0
3 -53 -55 0
-5 48 -55 0
49 57 71 0
24 -27 49 0
3 -33 -40 0
39 41 -62 0
21 42 -74 0
18 33 75 0
-20 31 51 0
-37 -45 60 0
-15 28 -46 0
5 -21 -59 0
1 -19 48 0
25 -49 70 0
12 23 -39 0
-42 45 71 0
18 52 72 0
6 35 44 0
-5 46 47 0
41 44 63 0
-10 -14 38 0
-17 -40 45 0
-10 11 -69 0
-18 27 42 0
-49 55 60 0
-38 -42 75 0
14 16 61 0
27 -33 -72 0
33 52 -66 0
15 -53 -59 0
-1 35 47 0
57 69 -71 0
2 -3 63 0
-58 -60 -66 0
-2 -27 42 0
3 -42 -47 0
26 -37 -63 0
34 -50 -67 0
-20 -25 -71 0
-30 32 -51 0
-47 -51 64 0
32 -59 -62 0
-1 -20 -40 0
-10 24 41 0
8 30 -31 0
35 50 -63 0
2 28 -37 0
-8 -35 -75 0
31 -40 75 0
29 35 59 0
8 -31 34 0
29 33 74 0
45 -60 -74 0
24 -60 62 0
8 -9 -37 0
-26 31 -48 0
-2 26 41 0
15 21 53 0
31 -42 54 0
7 54 -60 0
24 -52 58 0
39 -45 58 0
20 -39 -40 0
27 -60 -67 0
-40 54 -55 0
-15 -28 -35 0
7 -14 63 0
38 -44 -63 0
-4 -20 -71 0
46 56 63 0
23 -32 -37 0
-42 -55 -71 0
-16 -27 -61 0
20 -25 -41 0
23 33 44 0
-24 25 37 0
-12 52 -66 0
14 -17 -58 0
-23 37 -61 0
-4 28 49 0
-36 -39 -50 0
44 47 -64 0
5 29 44 0
-3 31 44 0
1 10 53 0
34 -67 69 0
4 26 74 0
8 -15 -43 0
27 36 -55 0
19 -45 55 0
1 6 23 0
-50 -51 57 0
22 30 51 0
-24 -36 -39 0
-30 31 -40 0
13 42 -73 0
-3 -50 -51 0
3 -24 39 0
7 17 -74 0
3 -15 -39 0
-44 -50 -64 0
-53 -68 -74 0
13 -24 -64 0
-8 -44 45 0
-40 -51 -70 0
1 -13 -36 0
-16 -46 67 0
20 25 -62 0
26 -36 56 0
38 -50 54 0
-23 -31 40 0
-27 37 -72 0
-15 -19 -24 0
4 6 37 0
-20 46 -62 0
4 17 -48 0
2 -16 -32 0
48 56 69 0
13 -44 62 0
-20 -46 -65 0
-56 59 -73 0
-40 48 63 0
-3 24 -67 0
18 -41 -48 0
-4 -40 70 0
-1 -8 17 0
-3 -26 55 0
-16 45 -72 0
-15 58 61 0
27 -32 43 0
23 -28 59 0
-9 -36 68 0
22 -38 -44 0
41 -43 -58 0
-4 28 69 0
-7 21 -57 0
4 40 -45 0
-16 -37 -44 0
7 -34 -39 0
-7 20 -29 0
7 12 -72 0
-11 41 -70 0
28 -31 44 0
35 42 -47 0
-5 50 62 0
40 49 -67 0
11 -17 -55 0
11 17 -49 0
3 32 71 0
-34 59 66 0
18 -61 69 0
-11 -39 -54 0
28 64 -72 0
51 -56 -67 0
49 -63 71 0
3 -40 -45 0
1 -35 66 0
9 12 -42 0
-19 -33 75 0
-18 -35 65 0
-15 29 38 0
27 -39 -70 0
20 49 51 0
17 -25 -61 0
-14 -21 -52 0
-38 53 60 0
-7 13 -14 0
15 19 54 0
7 14 -21 0
-54 -59 -60 0
-8 25 43 0
-18 -31 42 0
-16 -45 -49 0
-13 -16 -65 0
19 29 -38 0
-23 -47 -52 0
23 29 43 0
52 56 -58 0
20 26 59 0
29 40 -53 0
17 -44 -46 0
-32 37 -52 0
-41 65 70 0
-30 32 45 0
-6 9 -49 0
-7 -35 -51 0
47 55 -61 0
-4 31 72 0
-9 18 -52 0
2 -15 -28 0
17 -37 -39 0
13 19 -33 0
43 54 62 0
-3 -64 70 0
-11 44 -52 0
42 -46 51 0
30 -54 -64 0
13 22 -64 0
-9 10 -68 0
-2 -53 -55 0
-4 -54 74 0
-45 63 74 0
-32 -66 -75 0
16 63 -72 0
-8 51 64 0
-23 34 67 0
17 -19 51 0
-4 -16 59 0
-19 56 -61 0
40 56 57 0
-11 13 19 0
33 38 60 0
-42 -57 62 0
7 -8 -56 0
-39 -48 -55 0
1 -17 60 0
-20 46 74 0
-16 -22 31 0
-11 -21 -39 0
-13 20 -54 0
-9 37 -38 0
-11 -18 30 0
-26 36 44 0
42 55 -60 0
1 -5 -22 0
9 -44 69 0
23 -33 34 0
4 -15 45 0
-23 34 59 0
50 59 -66 0
5 49 -50 0
31 66 69 0
-24 47 -64 0
37 43 -45 0
-25 -30 54 0
18 47 -60 0
-29 -41 55 0
46 47 51 0
-6 22 -42 0
-16 26 44 0
-5 -58 -64 0
52 55 61 0
28 39 -42 0
12 -29 -64 0
25 51 -54 0
35 -36 64 0
-50 52 -57 0
50 58 59 0
22 42 44 0
-2 8 -32 0
18 -44 66 0
-15 -37 -48 0
2 -28 -43 0
-19 -24 43 0
20 30 70 0
27 54 -73 0
28 34 -63 0
-32 34 54 0
43 51 -53 0
18 28 -65 0
1 -11 65 0
22 -49 -74 0
-3 32 -45 0
-23 51 70 0
-28 48 -74 0
-41 -46 -64 0
3 -7 -70 0
-33 -49 68 0
26 -54 68 0
4 -17 20 0
-2 17 -72 0

