c Generated by rand.py 75 375 3 463037
c Generator source: https://github.com/aaw/sat/blob/master/gen/rand.py
p cnf 75 375
-7 45 -64 0
1 -40 -62 0
11 -19 64 0
-41 -50 67 0
33 -61 73 0
2 43 51 0
20 61 64 0
10 -28 -69 0
-13 -39 -45 0
-6 -55 -69 0
16 49 -51 0
-15 -27 57 0
-3 22 37 0
1 65 70 0
43 50 -72 0
1 -55 67 0
22 24 55 0
-7 44 -70 0
2 7 -39 0
5 18 -49 0
-8 -35 66 0
-13 37 -52 0
-24 -33 44 0
-15 32 -49 0
9 -20 32 0
33 58 70 0
-1 -44 63 0
10 13 -50 0
-17 -58 70 0
16 26 65 0
19 69 71 0
-6 38 43 0
-17 -41 -67 0
13 18 -28 0
-12 -14 -39 0
-20 60 72 0
-53 -59 75 0
-3 9 63 0
49 50 73 0
-10 -40 51 0
-20 -46 49 0
-27 31 -36 0
10 -11 44 0
-10 -16 -65 0
28 -55 -71 0
-9 -38 42 0
25 -37 -67 0
-12 14 -43 0
-6 -30 -61 0
-41 52 -65 0
22 48 -68 0
-17 30 74 0
28 33 38 0
21 31 37 0
66 -68 -75 0
11 36 -37 0
4 -21 -65 0
12 -48 -74 0
-20 -33 73 0
34 -42 72 0
27 -39 -69 0
-6 -30 60 0
16 -48 69 0
-5 -16 -38 0
-4 -25 -34 0
-32 -53 -61 0
-7 29 63 0
-32 37 -62 0
5 -17 -33 0
-5 -28 -49 0
-1 -2 68 0
-43 -49 -57 0
-4 -22 -39 0
1 13 -66 0
32 -34 61 0
-17 -37 -72 0
30 51 63 0
3 -30 -67 0
-18 21 -43 0
-43 46 61 0
-21 43 65 0
5 -21 -31 0
-43 -46 -65 0
13 -36 74 0
-11 -13 30 0
41 48 -64 0
-8 -60 74 0
22 -26 37 0
27 40 -64 0
-6 50 -62 0
42 -50 -63 0
40 -60 -71 0
35 44 75 0
31 -63 -69 0
12 -42 -59 0
1 42 -70 0
8 -39 -72 0
15 65 -73 0
-39 -54 -60 0
23 61 66 0
20 -26 68 0
32 -49 58 0
44 73 -75 0
6 -56 -60 0
-11 67 -74 0
8 23 -51 0
28 -38 -55 0
-34 -55 -74 0
-4 33 49 0
24 34 47 0
-13 -32 -60 0
48 -60 -75 0
2 9 11 0
17 -23 52 0
19 22 54 0
-31 60 61 0
-35 36 -42 0
14 -29 -68 0
57 -63 -71 0
19 -21 -75 0
5 16 45 0
31 58 -74 0
-13 -28 42 0
-12 29 -49 0
-10 20 -57 0
19 55 69 0
-13 30 34 0
-37 48 -52 0
-28 -38 44 0
3 -46 59 0
-16 -24 -62 0
-15 -21 -22 0
-1 10 16 0
17 -60 -61 0
-46 -58 -64 0
-7 -60 64 0
-22 -44 -63 0
7 28 66 0
-2 55 62 0
40 58 -63 0
-13 -27 -72 0
-53 -60 -75 0
7 34 58 0
-3 -32 -44 0
41 59 -61 0
44 68 -70 0
13 33 -47 0
16 -27 62 0
-70 -71 73 0
-1 -12 47 0
22 -26 74 0
9 -16 22 0
-8 73 -75 0
7 -35 38 0
14 -24 -30 0
25 -32 46 0
-10 18 -66 0
-10 -61 66 0
-6 17 -41 0
27 54 64 0
-8 -66 -69 0
-33 -44 -59 0
-43 -50 62 0
-23 51 -59 0
-40 54 -65 0
19 -31 -51 0
-17 -34 -37 0
2 -3 -54 0
2 65 74 0
-38 39 47 0
-21 48 -70 0
19 46 -56 0
-19 42 60 0
13 19 20 0
2 22 37 0
40 -49 -74 0
-4 29 58 0
36 66 -73 0
3 16 38 0
28 -42 63 0
-44 -56 59 0
-53 68 70 0
14 -20 -55 0
-1 -16 -58 0
30 60 71 0
49 64 -75 0
40 -49 70 0
14 22 -56 0
23 34 38 0
18 23 70 0
16 54 62 0
-6 13 -21 0
-11 -28 -63 0
-20 -50 -63 0
-25 -35 -50 0
13 29 63 0
4 38 -64 0
-12 14 39 0
26 -68 -70 0
10 -34 73 0
-23 27 -64 0
4 54 61 0
-10 30 -41 0
-55 -60 -71 0
-13 -30 55 0
1 8 17 0
41 -48 -54 0
4 -13 62 0
-17 -26 -61 0
17 52 57 0
2 29 66 0
-8 11 -39 0
22 -52 70 0
-5 63 68 0
18 -21 53 0
26 -28 -31 0
-16 17 75 0
29 59 68 0
3 -21 53 0
28 -45 53 0
7 -23 51 0
-21 28 65 0
17 58 -66 0
-4 23 -36 0
-22 28 48 0
18 30 -43 0
-24 -31 -35 0
-52 -57 60 0
-45 -55 62 0
-14 -16 49 0
-3 8 50 0
-2 34 -65 0
-27 55 66 0
-26 -35 -36 0
-20 47 75 0
11 -27 -30 0
-10 42 -69 0
15 -52 73 0
5 -18 29 0
26 -53 -73 0
-44 58 -75 0
12 -27 74 0
14 27 -28 0
-40 41 -44 0
1 -18 70 0
19 31 51 0
-4 -30 -65 0
-16 -52 62 0
-2 35 -66 0
3 35 51 0
22 -54 -65 0
43 -70 -71 0
-16 -26 62 0
41 -62 -64 0
-11 -20 -72 0
-15 -21 -61 0
38 67 -70 0
2 19 64 0
34 -61 -63 0
-16 50 58 0
9 43 -51 0
33 42 44 0
7 -8 -62 0
-39 -42 -70 0
-9 16 46 0
4 -29 -72 0
-22 -24 -68 0
-31 59 64 0
20 -51 -70 0
24 -44 -68 0
-5 -42 75 0
-24 47 70 0
30 -44 -67 0
18 25 62 0
-23 34 69 0
26 34 -39 0
-11 24 69 0
32 -59 -69 0
7 -62 -69 0
-12 20 -32 0
8 25 42 0
14 -31 36 0
-16 33 47 0
40 -66 -75 0
-12 -37 -66 0
-14 66 -68 0
45 -49 74 0
-11 14 64 0
22 -64 71 0
7 58 59 0
-3 -60 -71 0
-23 -36 42 0
-25 -33 49 0
15 -21 58 0
11 23 -42 0
17 19 -20 0
1 57 -73 0
27 -57 72 0
-49 -59 -60 0
-4 -5 -61 0
9 62 -69 0
45 -66 -68 0
-41 -58 -62 0
2 -60 -73 0
-57 63 75 0
-1 -4 36 0
-18 -29 -70 0
6 -50 65 0
-10 -52 56 0
-8 39 58 0
-18 43 68 0
-60 -71 75 0
-7 -69 73 0
8 -44 67 0
16 -21 -63 0
-18 19 -66 0
-26 -42 50 0
27 -38 48 0
-14 33 48 0
-13 -47 72 0
38 64 -73 0
6 -53 67 0
6 53 -68 0
-3 -4 -42 0
-21 51 54 0
29 66 -71 0
12 -51 60 0
4 16 49 0
1 -26 43 0
27 31 -32 0
-12 -50 53 0
12 38 -63 0
50 60 69 0
-18 -38 58 0
-28 51 52 0
2 39 -63 0
4 11 -22 0
-52 -59 70 0
-17 37 51 0
-21 23 -72 0
-32 36 -45 0
-35 43 -50 0
-21 -48 -54 0
20 40 -46 0
16 -58 67 0
6 24 35 0
65 67 -74 0
-23 -65 -74 0
-20 -24 -70 0
50 -73 -74 0
43 -49 -72 0
-13 -40 64 0
13 35 46 0
-25 -26 69 0
21 52 57 0
-20 54 -55 0
-32 -67 74 0
-35 -57 -60 0
42 -49 -69 0
8 -18 22 0
-14 -21 23 0
47 -49 -55 0
16 -60 70 0
14 -24 51 0
33 -48 51 0
-36 45 -58 0
-40 55 66 0
14 -31 -46 0
28 32 -55 0
21 26 32 0
2 5 -36 0
-17 30 36 0
23 29 65 0
17 41 65 0
-32 -39 -43 0

