c Generated by rand.py 50 250 3 426818
c Generator source: https://github.com/aaw/sat/blob/master/gen/rand.py
p cnf 50 250
15 -30 -46 0
-7 -18 -34 0
-13 -14 26 0
-15 27 42 0
13 43 45 0
-12 38 -44 0
9 11 -47 0
-19 -44 46 0
-1 22 36 0
17 -48 -49 0
7 -24 34 0
3 9 -18 0
5 10 -11 0
32 -37 -47 0
9 17 23 0
-5 -43 -49 0
-22 26 41 0
-5 -20 36 0
2 -29 -44 0
6 13 -50 0
-6 -23 33 0
-1 7 -38 0
8 -22 -35 0
-36 -40 47 0
-5 17 30 0
6 -27 43 0
11 33 -41 0
-2 8 22 0
-35 -36 50 0
-10 -18 -34 0
26 -37 -40 0
14 15 45 0
-16 -29 47 0
36 -46 -49 0
-4 -31 -45 0
-5 -15 35 0
11 30 32 0
-23 -29 45 0
3 -6 -41 0
37 39 -42 0
5 -30 -41 0
-36 37 38 0
-20 -28 31 0
-11 -22 26 0
-10 19 -33 0
7 -13 -38 0
14 -47 -50 0
-3 6 -30 0
-5 16 40 0
-21 25 29 0
24 33 41 0
1 -6 20 0
-14 32 38 0
-13 -16 47 0
36 -43 -44 0
-15 20 -29 0
-12 -28 36 0
-4 6 35 0
31 36 -49 0
-14 37 38 0
-13 -36 -42 0
12 19 -22 0
-1 -14 32 0
37 -49 50 0
15 22 35 0
-38 40 -45 0
30 40 -43 0
-16 28 31 0
-15 -48 -49 0
-2 -6 37 0
2 -17 37 0
-9 32 34 0
-10 -13 -48 0
26 -36 38 0
-9 -32 38 0
6 27 33 0
6 -28 46 0
13 47 -49 0
17 24 -32 0
9 -15 -49 0
23 32 43 0
-23 24 42 0
-8 -19 46 0
6 -8 -41 0
-4 -30 -31 0
4 -16 -41 0
-23 -33 48 0
-10 -36 44 0
-16 38 -47 0
28 -44 -46 0
2 -4 -43 0
-5 29 45 0
23 34 38 0
19 -33 38 0
-1 25 46 0
-4 -27 -46 0
8 -28 49 0
-12 19 -44 0
-4 13 23 0
11 13 42 0
15 23 -39 0
-23 29 39 0
16 35 -42 0
7 13 -20 0
15 35 -46 0
23 -24 -50 0
5 23 45 0
31 33 -42 0
-1 -19 -45 0
1 17 23 0
16 -30 43 0
-18 -48 -49 0
11 13 -49 0
12 29 48 0
23 32 -44 0
-21 -33 38 0
-38 39 -44 0
11 -36 45 0
-5 -29 33 0
-3 42 43 0
5 16 20 0
1 6 -22 0
25 32 -35 0
25 -32 39 0
4 18 -32 0
6 -33 35 0
2 -6 -33 0
28 -41 43 0
-37 -49 50 0
19 28 -45 0
10 -39 41 0
-24 31 -44 0
5 32 -33 0
23 27 42 0
-7 30 -32 0
-1 3 -36 0
-2 -20 40 0
-20 42 43 0
4 -23 48 0
-8 10 -40 0
20 26 -38 0
-6 -17 20 0
2 21 31 0
-23 -34 38 0
5 -31 41 0
17 28 39 0
1 -48 -50 0
13 33 -39 0
17 -18 41 0
-1 -25 36 0
14 40 -44 0
-17 29 -32 0
-7 -33 41 0
-12 26 -41 0
5 -19 31 0
-3 -29 38 0
-13 30 -50 0
37 38 -40 0
3 12 -28 0
-20 -24 -41 0
12 36 -47 0
-6 11 47 0
9 -13 -19 0
37 39 -48 0
7 -21 35 0
-5 23 -37 0
-2 -27 -48 0
-3 4 5 0
6 34 -47 0
-1 39 -46 0
15 -20 -33 0
4 17 -46 0
-15 -23 47 0
-30 -36 -45 0
-9 11 46 0
-13 -28 35 0
16 -17 49 0
-21 -24 34 0
10 -19 22 0
28 36 -47 0
26 -36 49 0
-6 -13 -49 0
2 7 -50 0
22 -25 -27 0
-20 29 -30 0
7 27 33 0
-24 -41 -49 0
24 -25 -27 0
23 -42 44 0
16 -30 35 0
-4 -5 -9 0
19 40 -41 0
4 -6 -16 0
8 27 -44 0
-24 -34 47 0
-16 -24 -37 0
1 27 44 0
-4 12 -40 0
4 -31 45 0
-9 26 -36 0
-8 17 44 0
-1 3 17 0
-8 13 23 0
2 -6 -23 0
4 -31 46 0
19 22 50 0
-21 -34 46 0
-13 -39 50 0
24 -28 29 0
-11 -20 38 0
-8 -25 47 0
10 34 39 0
-2 -14 -17 0
4 10 12 0
-24 -47 -48 0
-3 -9 -32 0
31 -38 42 0
-1 -13 -41 0
13 28 34 0
12 -16 35 0
-14 31 -37 0
14 22 31 0
10 -20 30 0
-2 -15 -20 0
-2 -7 11 0
3 -5 27 0
12 -15 46 0
11 19 -47 0
31 -40 50 0
-5 48 50 0
-8 9 25 0
-1 33 50 0
6 28 -42 0
16 -18 -39 0
3 -22 44 0
9 -20 29 0
-8 14 26 0
-1 27 -44 0
6 20 -39 0
-18 -40 -47 0
19 28 44 0
15 -42 49 0
26 32 40 0
6 14 50 0
2 -13 -43 0
-13 -18 -43 0
27 -30 37 0
11 24 -37 0
34 47 -49 0
-13 22 34 0

