c Generated by rand.py 75 375 3 14704
c Generator source: https://github.com/aaw/sat/blob/master/gen/rand.py
p cnf 75 375
12 -48 68 0
-44 53 54 0
-20 -50 66 0
-24 59 68 0
51 -64 67 0
40 48 59 0
5 -15 23 0
-25 37 63 0
8 -11 75 0
-8 13 -63 0
-13 24 63 0
-5 14 24 0
28 -41 -50 0
-1 48 73 0
14 55 64 0
20 54 67 0
17 35 47 0
10 24 -33 0
-1 -44 -54 0
-6 36 56 0
-2 -14 -19 0
-23 -40 -45 0
-2 -46 71 0
19 -40 -46 0
4 57 -66 0
7 24 -27 0
32 -43 60 0
25 45 52 0
36 55 -65 0
3 34 58 0
29 41 56 0
-10 21 -57 0
-11 18 46 0
32 58 73 0
-25 -43 -60 0
50 60 72 0
-5 10 -28 0
-9 -14 52 0
3 32 58 0
-4 8 -47 0
-5 38 -71 0
6 -14 37 0
30 -33 -44 0
-24 59 71 0
12 38 71 0
-8 -16 -61 0
-26 30 -35 0
1 50 -75 0
28 33 -44 0
18 21 -32 0
-21 -40 56 0
-14 -30 73 0
8 -39 63 0
27 -29 46 0
-38 -47 70 0
2 33 60 0
13 -66 -70 0
-10 47 67 0
6 44 -71 0
-12 25 -70 0
-17 20 70 0
37 -49 74 0
-14 -49 65 0
-8 -49 67 0
20 -33 36 0
30 46 72 0
15 -23 -24 0
39 47 -63 0
-2 -36 53 0
61 -71 75 0
-10 -38 44 0
-11 12 -23 0
14 47 54 0
-5 12 36 0
-31 45 73 0
42 -50 73 0
-27 -51 66 0
-3 28 55 0
-19 -54 57 0
11 -70 75 0
-17 -19 -39 0
27 -35 57 0
1 -41 46 0
1 -12 15 0
-32 35 -55 0
-8 17 -55 0
14 -19 42 0
10 12 64 0
-25 -57 -59 0
36 44 -72 0
-20 21 -60 0
-8 19 48 0
14 32 -42 0
-1 -6 -73 0
5 -14 75 0
-11 -15 -67 0
-37 -42 71 0
17 51 -74 0
48 -56 -63 0
-38 -55 -57 0
13 19 -45 0
25 -40 50 0
7 -24 -33 0
6 20 55 0
6 -17 49 0
10 -39 48 0
-45 63 68 0
-7 30 -71 0
-2 -55 -62 0
-11 -49 -71 0
42 50 66 0
-23 -45 59 0
6 -58 -67 0
28 -37 -71 0
27 -28 44 0
-12 -38 46 0
3 -9 -60 0
-3 -13 46 0
-39 50 -66 0
-5 -8 30 0
-40 -54 -66 0
-20 -23 -50 0
-21 60 -66 0
-24 -38 -57 0
5 66 71 0
17 23 44 0
8 -59 67 0
-19 -25 -27 0
10 -21 31 0
-12 -64 -67 0
-6 -9 -31 0
-41 53 -70 0
-12 34 -54 0
23 -40 58 0
5 22 49 0
-28 40 -43 0
13 -57 -68 0
-41 -42 -50 0
20 40 42 0
-3 -41 68 0
-1 -46 -73 0
19 -25 29 0
1 -11 67 0
-9 -40 -55 0
22 -47 59 0
44 62 72 0
-10 21 -70 0
-1 55 -67 0
40 43 -47 0
34 52 -71 0
-38 -53 -65 0
-12 24 39 0
11 12 71 0
33 52 71 0
-27 -33 -36 0
12 36 59 0
17 22 53 0
44 -56 -69 0
-46 60 64 0
3 -61 68 0
-18 65 75 0
-19 -23 25 0
40 -46 47 0
7 27 -43 0
-28 30 -32 0
-7 -16 -72 0
-63 71 73 0
5 -25 33 0
30 68 -73 0
-2 -54 62 0
-41 -43 51 0
-2 25 34 0
-7 26 -30 0
5 12 -67 0
-5 -35 -37 0
16 -44 53 0
-30 -37 60 0
-8 -46 -59 0
34 50 57 0
-51 55 -62 0
10 -28 -35 0
-13 -50 -71 0
3 16 -51 0
-24 -38 -47 0
-31 -46 -65 0
-12 -14 -44 0
-2 -63 -72 0
-1 -20 51 0
26 42 46 0
-14 -20 57 0
21 55 -74 0
-3 -33 -38 0
10 -36 42 0
-30 44 70 0
-46 -53 -54 0
-19 -37 -70 0
-54 -67 -74 0
10 29 -52 0
10 -16 59 0
42 -50 58 0
25 66 69 0
-40 46 75 0
8 -42 70 0
-33 -36 -63 0
-1 18 55 0
-7 12 -39 0
-13 -53 -58 0
7 -26 -31 0
11 28 -65 0
-33 41 68 0
32 45 -74 0
-6 -21 51 0
2 -7 -58 0
6 -47 -73 0
-4 24 -54 0
4 -33 60 0
-4 31 35 0
15 -19 49 0
-50 55 -71 0
-25 -31 46 0
-8 -30 -64 0
27 32 -70 0
2 36 -40 0
2 36 75 0
-44 -67 -69 0
5 -16 -52 0
3 62 65 0
-8 -22 52 0
15 -58 64 0
-4 13 32 0
-5 22 33 0
1 -20 -38 0
18 -29 42 0
-2 -13 -22 0
52 -65 69 0
-10 -27 -36 0
-10 32 -56 0
-46 53 -60 0
12 22 53 0
5 -21 28 0
-25 -45 -63 0
-4 -20 -32 0
5 -32 36 0
-10 -20 -33 0
-17 18 -22 0
3 -43 57 0
1 39 48 0
38 62 72 0
-11 62 -63 0
21 -28 57 0
-9 -62 -66 0
-20 24 43 0
14 -43 49 0
-2 15 -54 0
7 30 -42 0
9 39 -62 0
34 -62 -72 0
22 36 -49 0
-9 26 69 0
-14 -51 -54 0
10 -17 65 0
-16 -17 70 0
-11 -18 -42 0
-9 -18 31 0
23 -52 61 0
-23 -24 -25 0
-51 58 71 0
-15 -33 62 0
-4 -5 43 0
16 -17 62 0
5 -7 60 0
-1 -11 40 0
-27 -40 -54 0
-25 48 65 0
-2 15 -37 0
-22 53 75 0
18 -56 -60 0
-25 -34 -59 0
-35 68 -70 0
-24 29 59 0
15 19 32 0
40 -61 63 0
-59 -65 70 0
-1 17 -33 0
-30 -53 69 0
-18 47 -62 0
10 20 63 0
35 68 -72 0
-7 -34 42 0
7 -71 -74 0
59 -62 -73 0
11 -52 -53 0
-5 34 46 0
21 -28 40 0
46 -51 -67 0
-15 -52 -59 0
-24 36 48 0
2 -6 47 0
7 -23 42 0
42 -46 -53 0
9 20 -58 0
-3 60 -61 0
12 53 -68 0
-2 -15 25 0
-7 -11 -68 0
34 -67 75 0
-18 48 -56 0
-15 31 -73 0
7 51 63 0
-36 -44 63 0
-2 10 59 0
21 24 -27 0
19 -29 -57 0
-12 -42 -66 0
-32 44 52 0
-18 -38 53 0
-7 47 52 0
-2 61 -73 0
38 41 55 0
-1 40 47 0
-20 22 -26 0
50 57 60 0
2 -12 -30 0
-15 -24 -29 0
23 35 -52 0
-23 -25 36 0
25 31 32 0
-45 49 65 0
48 -56 -71 0
-5 14 -75 0
18 26 55 0
-6 -25 -50 0
19 -20 -25 0
-21 -38 -41 0
22 29 -51 0
11 43 66 0
-1 -3 60 0
-9 -15 -45 0
54 65 74 0
-16 41 72 0
12 50 52 0
19 -28 66 0
-21 -26 70 0
13 20 -52 0
3 23 -30 0
-2 27 -70 0
28 -31 -73 0
52 -59 -73 0
-5 45 -68 0
1 -21 34 0
35 -61 -74 0
-29 -47 60 0
18 -46 73 0
-12 -35 60 0
12 23 -70 0
6 -9 -75 0
-44 -45 -58 0
22 37 58 0
38 -70 75 0
-53 56 -62 0
6 -70 71 0
-18 -21 -68 0
-19 -59 66 0
-17 -44 -68 0
-8 -52 -56 0
-11 13 47 0
13 -25 57 0
44 50 57 0
19 -58 -75 0
51 -61 -70 0
16 -59 -73 0
-7 -21 -31 0
20 -32 -57 0
45 -46 -67 0
-7 66 -70 0

