c Generated by rand.py 50 250 3 22978
c Generator source: https://github.com/aaw/sat/blob/master/gen/rand.py
p cnf 50 250
37 39 -50 0
-4 31 35 0
8 -26 40 0
22 -28 36 0
37 38 42 0
4 12 -24 0
12 15 16 0
-12 -28 31 0
-7 20 -36 0
-12 -37 -40 0
6 37 44 0
37 -43 -48 0
-1 -13 44 0
7 -15 -23 0
-7 -13 26 0
23 35 50 0
-27 30 -49 0
5 22 25 0
-20 -39 46 0
9 -37 -41 0
8 -31 46 0
-4 10 -36 0
-21 31 -35 0
16 -24 -35 0
16 22 36 0
-18 24 46 0
-29 -34 -39 0
-19 -39 45 0
-1 3 -28 0
18 36 -37 0
-13 29 50 0
-6 15 -44 0
-20 25 -35 0
-2 -24 36 0
3 20 -50 0
21 24 26 0
1 -41 -49 0
13 -20 -27 0
-30 -39 -40 0
15 -29 37 0
-10 13 -39 0
-11 -25 -50 0
-3 -38 45 0
1 -4 -42 0
-1 -35 37 0
1 16 38 0
10 -14 19 0
9 18 32 0
-1 -12 -28 0
-16 23 -24 0
18 43 50 0
14 25 27 0
22 28 -45 0
-14 -26 29 0
-5 34 -44 0
-25 -37 -49 0
2 -6 -18 0
30 -32 -41 0
12 -17 18 0
-27 -28 -44 0
43 44 -47 0
-10 36 -46 0
15 20 -48 0
-1 -5 12 0
-2 22 -37 0
-8 -27 -38 0
11 -32 38 0
-5 26 -27 0
1 41 -46 0
8 -17 -18 0
7 -24 -47 0
-2 -9 45 0
38 43 49 0
4 -13 35 0
5 17 -20 0
20 40 48 0
34 -45 48 0
22 30 43 0
8 -17 -23 0
-9 28 39 0
-17 27 -42 0
6 9 23 0
-4 40 42 0
12 27 43 0
-6 39 43 0
-7 -16 28 0
-3 6 -31 0
-20 28 -34 0
1 27 41 0
17 -21 -33 0
-10 -43 46 0
22 -27 49 0
3 14 -31 0
-4 -9 18 0
20 40 42 0
-6 -14 -42 0
-26 37 -41 0
2 7 -10 0
-19 30 -31 0
-14 -28 -50 0
-8 10 29 0
4 -32 43 0
-19 -26 -45 0
-18 -24 42 0
21 35 -40 0
15 -19 32 0
22 -39 48 0
21 -41 47 0
-2 20 41 0
11 -12 -41 0
-21 -29 -49 0
-22 39 -50 0
5 -31 36 0
42 -43 49 0
-2 31 -34 0
-22 35 37 0
-12 -41 42 0
19 -30 -35 0
8 34 -48 0
5 7 22 0
-4 -36 -42 0
-25 33 -46 0
17 34 47 0
8 23 -43 0
18 -27 -48 0
12 15 -24 0
-33 -38 46 0
-14 -29 -35 0
-3 -28 -47 0
-10 -13 -37 0
17 -44 -47 0
-6 11 -48 0
35 43 -49 0
4 35 37 0
25 36 41 0
14 20 43 0
9 12 35 0
23 -43 44 0
-25 29 36 0
4 -17 48 0
-2 -31 44 0
3 -12 -28 0
11 36 -46 0
19 39 48 0
-13 -24 -47 0
17 24 32 0
-14 -31 -32 0
3 25 42 0
13 -39 -43 0
-13 21 44 0
3 11 -17 0
16 22 39 0
-5 34 -36 0
-16 19 35 0
20 -24 -28 0
9 44 45 0
19 20 47 0
13 33 -38 0
-16 -33 -49 0
10 34 -49 0
-40 45 -47 0
-5 24 -44 0
-34 -36 40 0
-7 29 31 0
6 -7 -44 0
-37 41 47 0
2 6 -26 0
-14 -28 -49 0
-27 47 -49 0
-8 34 -36 0
-1 41 -50 0
7 -11 17 0
3 -20 28 0
-18 -37 40 0
-12 17 -34 0
-6 9 -46 0
22 31 -43 0
-4 -20 -23 0
13 23 34 0
-22 42 50 0
-14 -25 -34 0
-28 -32 -39 0
31 -37 -41 0
-8 45 46 0
-18 31 50 0
1 13 -26 0
-6 -13 19 0
-9 26 35 0
14 30 -50 0
-5 -6 26 0
9 46 -48 0
4 -21 -34 0
-8 21 -23 0
5 7 49 0
-11 12 -37 0
-10 -12 -45 0
-2 20 33 0
-6 -11 49 0
15 16 -34 0
16 17 -22 0
36 42 50 0
-1 -22 -37 0
12 16 -39 0
6 31 44 0
-1 -6 28 0
15 -27 -33 0
-17 -26 -36 0
-6 -31 -36 0
-7 -8 -22 0
5 -30 -40 0
7 -13 -42 0
19 35 50 0
1 13 -49 0
23 33 46 0
-9 26 -36 0
12 -25 -31 0
-9 -26 36 0
1 38 48 0
-9 10 -23 0
4 23 30 0
4 -8 -43 0
-18 -30 -32 0
7 -27 50 0
11 -24 37 0
12 32 47 0
20 -31 35 0
4 26 -40 0
10 -35 39 0
-14 -39 -41 0
-5 16 20 0
1 -3 -40 0
1 -2 28 0
-4 8 -32 0
-21 30 -48 0
6 11 -27 0
6 -19 40 0
-5 -19 -31 0
-17 24 -27 0
11 -33 -45 0
-6 15 45 0
30 35 36 0
6 30 42 0
-20 -40 44 0
-12 -21 47 0
2 -5 -34 0
14 -18 -38 0
15 37 38 0
-3 8 38 0
5 12 -16 0
5 26 -42 0

