c Generated by rand.py 75 375 3 668789
c Generator source: https://github.com/aaw/sat/blob/master/gen/rand.py
p cnf 75 375
18 26 53 0
22 -52 55 0
-10 -38 -57 0
66 -69 71 0
3 -17 43 0
10 -60 70 0
-4 -52 -66 0
2 4 -17 0
13 -33 50 0
-39 46 57 0
35 -46 57 0
10 46 -58 0
22 28 75 0
-24 43 -62 0
-19 40 67 0
16 50 54 0
11 29 -49 0
41 53 -63 0
40 51 61 0
29 -62 -70 0
-14 -19 44 0
27 -40 72 0
6 -24 -41 0
-7 -10 -60 0
-4 -54 73 0
63 67 75 0
-15 -20 -36 0
-26 55 73 0
4 -20 23 0
-13 50 70 0
-3 29 -72 0
-29 37 69 0
21 -30 65 0
25 68 -71 0
7 12 -34 0
-22 -57 -63 0
11 -55 61 0
-7 -9 40 0
8 57 -58 0
25 61 -68 0
-14 52 -75 0
-32 -46 48 0
4 -56 -65 0
6 22 -55 0
49 53 -66 0
-10 -32 -34 0
-14 -33 43 0
2 24 31 0
-5 -46 -60 0
-8 51 58 0
3 22 -37 0
-12 40 71 0
-15 46 60 0
2 50 -65 0
12 55 -67 0
1 25 41 0
-5 -58 -70 0
26 40 -54 0
-15 70 71 0
7 26 69 0
20 23 65 0
43 47 65 0
-35 37 -52 0
-9 41 61 0
18 -41 45 0
34 37 51 0
1 10 57 0
27 -61 62 0
18 37 70 0
-35 36 51 0
16 -31 -73 0
-6 8 41 0
-15 26 -44 0
9 50 -59 0
57 -62 -70 0
31 48 -67 0
1 23 -56 0
1 63 -66 0
-36 40 -45 0
4 40 -48 0
50 57 67 0
-1 5 51 0
13 48 -59 0
1 66 -72 0
-8 -12 46 0
-22 32 -34 0
7 12 41 0
35 -41 65 0
56 -62 74 0
4 15 21 0
-18 43 57 0
-8 -70 73 0
8 -31 -33 0
-10 23 73 0
32 -44 -53 0
-30 40 -69 0
-11 14 -67 0
-24 -53 57 0
6 11 43 0
-2 38 57 0
-4 28 -64 0
-35 -41 44 0
6 7 30 0
-33 -40 -73 0
-7 -67 -73 0
-58 -71 73 0
50 64 73 0
9 -10 -48 0
-10 -52 -67 0
2 -7 -24 0
-18 -62 68 0
-6 59 -74 0
2 -49 71 0
19 36 37 0
-2 31 44 0
2 -27 -67 0
-23 40 69 0
4 -55 -75 0
-35 63 -69 0
-7 -61 -62 0
62 69 75 0
-8 -49 67 0
-3 7 57 0
18 44 47 0
-21 63 66 0
-3 5 -31 0
-27 -31 -52 0
28 37 -45 0
-37 49 -72 0
-22 -43 -75 0
-10 -27 38 0
-3 53 74 0
3 -59 -75 0
-41 -46 -50 0
12 -18 67 0
32 38 46 0
-8 -40 -56 0
33 -39 48 0
18 24 -74 0
-65 -67 69 0
-30 63 74 0
-16 -24 74 0
-26 -56 74 0
13 29 -51 0
-23 25 -65 0
-4 18 -22 0
-9 21 39 0
-11 24 -33 0
6 -44 72 0
-6 19 49 0
6 -37 -66 0
6 -26 -72 0
-17 19 -28 0
55 69 71 0
-39 -63 -69 0
-3 -48 -63 0
7 -9 19 0
-18 -31 -40 0
6 -16 55 0
50 -54 69 0
-52 -70 -71 0
4 40 72 0
32 -66 -74 0
-1 40 -50 0
-15 41 -48 0
13 -15 -28 0
-33 55 -61 0
-50 -53 70 0
1 -9 16 0
16 53 65 0
-29 -39 -46 0
-2 16 -37 0
-1 -5 -61 0
-29 -56 -60 0
-53 58 69 0
-1 -8 -35 0
-11 17 59 0
-5 6 50 0
-16 -35 -46 0
5 -20 26 0
-28 64 -68 0
-2 -36 -59 0
-45 -54 74 0
-13 -24 45 0
41 -65 71 0
-4 64 67 0
28 -55 66 0
-8 -19 67 0
35 -56 70 0
-9 -34 -63 0
23 -37 -70 0
-7 18 -25 0
-38 58 -66 0
38 52 57 0
3 -22 -58 0
-30 40 48 0
-4 32 -71 0
23 -29 71 0
-21 29 -40 0
8 -45 52 0
-24 63 -67 0
-48 -58 71 0
46 -50 73 0
-2 -25 65 0
-19 -23 40 0
8 59 67 0
-19 22 -59 0
-12 -22 -62 0
5 41 -52 0
-22 35 -63 0
46 -49 68 0
33 -40 53 0
-21 -46 -63 0
-3 5 -27 0
-5 -17 -74 0
-3 -19 -52 0
-23 -67 -71 0
27 34 -37 0
6 -18 52 0
-4 -42 -70 0
-5 36 63 0
-19 -42 70 0
-28 -41 71 0
9 27 28 0
9 -46 69 0
-27 -60 -61 0
-8 -50 -74 0
46 51 -61 0
49 -50 -56 0
18 -63 70 0
30 49 -64 0
-33 -53 -70 0
53 -56 -57 0
-5 -20 -73 0
-15 20 56 0
9 45 70 0
-21 42 57 0
-21 32 55 0
42 -60 72 0
28 -45 67 0
-11 -29 46 0
-5 -16 -56 0
20 -39 -46 0
-1 58 73 0
34 43 -71 0
-23 -47 -64 0
-2 -50 55 0
21 -52 -54 0
-6 7 64 0
-14 48 62 0
15 66 -70 0
-25 30 57 0
-22 36 47 0
23 -31 58 0
7 -52 62 0
23 33 -64 0
7 39 -59 0
-7 -26 -48 0
6 -15 -18 0
43 51 -58 0
-19 -30 68 0
12 -31 44 0
38 44 75 0
6 11 47 0
-29 -30 -40 0
3 10 -34 0
-14 27 73 0
-25 -54 73 0
-7 38 47 0
-1 49 74 0
-40 47 -69 0
-3 49 -64 0
-17 -24 38 0
-19 -55 69 0
17 62 70 0
-39 -63 -73 0
16 -38 -50 0
10 -51 73 0
-13 24 -39 0
36 -46 -71 0
17 50 -54 0
20 -51 -69 0
33 34 42 0
-32 65 -67 0
17 22 -31 0
-19 -22 75 0
-11 -51 71 0
-49 56 -68 0
-17 -47 65 0
8 -48 60 0
10 17 -37 0
28 50 73 0
-42 57 -74 0
18 -25 29 0
-45 72 -74 0
-9 33 66 0
-19 -40 -58 0
16 31 -64 0
-3 -19 -48 0
11 47 -62 0
-6 34 -39 0
31 -44 -67 0
-6 -19 45 0
42 48 64 0
13 59 62 0
39 -53 -59 0
-3 -25 41 0
-13 -20 30 0
17 -38 -70 0
-24 -36 53 0
-4 -5 24 0
9 -44 -66 0
28 -59 63 0
13 24 -67 0
49 -56 57 0
-12 -36 56 0
24 26 -28 0
-11 26 -46 0
10 -56 62 0
47 51 -68 0
-29 36 48 0
-39 -54 -59 0
-47 61 -65 0
-7 14 64 0
-9 -25 -42 0
38 -48 -49 0
-1 -22 -58 0
-11 -21 -34 0
1 -10 56 0
16 -67 -69 0
1 -12 -64 0
17 -64 73 0
-4 -9 68 0
3 26 -71 0
4 27 29 0
28 43 49 0
8 -18 23 0
9 32 44 0
26 -27 -38 0
6 -22 -42 0
-18 -40 46 0
34 71 -74 0
-9 47 -52 0
-30 -39 -55 0
-20 27 28 0
3 -54 67 0
7 30 -51 0
37 -39 -49 0
3 26 -36 0
-38 46 72 0
2 11 30 0
28 -39 -45 0
-11 -31 -42 0
5 70 75 0
-33 47 -67 0
3 -15 16 0
-45 68 -72 0
-47 57 68 0
13 -14 73 0
7 -8 71 0
-1 23 57 0
27 -56 66 0
21 -44 -74 0
11 -21 67 0
-1 -10 75 0
9 13 42 0
2 50 -57 0
-2 10 53 0
11 -31 33 0
2 -15 73 0
-19 50 63 0
-11 -33 34 0
3 -40 -55 0
17 -33 57 0
-26 49 -65 0

