c Generated by rand.py 75 375 3 532613
c Generator source: https://github.com/aaw/sat/blob/master/gen/rand.py
p cnf 75 375
3 15 40 0
-23 26 -74 0
-11 52 -68 0
3 -53 74 0
-8 -67 73 0
17 -45 48 0
2 -11 -32 0
2 18 -55 0
-6 7 -34 0
21 42 44 0
-24 29 60 0
-33 36 -58 0
23 -33 44 0
-28 35 61 0
-8 14 38 0
-14 -34 -54 0
13 -34 51 0
-22 23 -49 0
-38 56 -70 0
-11 -67 69 0
16 68 -70 0
11 70 75 0
30 -52 58 0
-2 -18 69 0
19 45 56 0
-33 48 68 0
-3 23 -66 0
22 27 -45 0
10 53 -57 0
-9 -31 -50 0
-22 55 -70 0
25 -47 -65 0
-6 40 62 0
-6 -11 61 0
49 -51 -70 0
-6 23 41 0
23 -26 -41 0
-17 -19 62 0
-58 59 -74 0
4 -16 37 0
1 18 -54 0
7 19 57 0
-23 -26 -30 0
30 -61 -67 0
20 49 72 0
-11 56 -75 0
-22 -29 59 0
1 -54 60 0
-27 -63 70 0
10 23 -64 0
3 -44 59 0
-29 -36 -45 0
12 16 -26 0
1 34 -36 0
26 -27 -34 0
2 -32 69 0
-47 -63 75 0
-19 -24 69 0
-53 63 -72 0
-16 28 -36 0
-29 45 64 0
13 28 64 0
7 32 69 0
2 19 -29 0
22 -56 -70 0
-17 29 47 0
-19 23 48 0
36 -56 58 0
22 31 58 0
41 53 67 0
8 15 -50 0
14 27 -54 0
64 -73 -75 0
-3 -14 -75 0
39 -48 73 0
43 44 63 0
-2 -29 66 0
-16 -48 -72 0
13 -59 66 0
-18 33 -38 0
-15 -37 -45 0
2 -60 -65 0
5 -6 -38 0
-6 17 -35 0
49 -52 56 0
16 -49 59 0
12 -56 -65 0
12 -43 -72 0
16 -21 52 0
13 26 -52 0
21 -43 -57 0
-5 35 44 0
27 41 42 0
-18 33 69 0
27 -48 49 0
11 18 -61 0
-40 43 59 0
1 -2 15 0
4 70 -75 0
-28 63 73 0
12 18 73 0
26 34 -57 0
9 -37 64 0
-3 42 -65 0
5 -44 -62 0
-11 -55 -75 0
-6 25 -67 0
13 -23 -67 0
-11 -52 -66 0
-27 -43 71 0
-14 40 63 0
-19 52 67 0
-30 -52 -64 0
5 57 65 0
35 -46 69 0
-14 -48 -69 0
-13 -20 52 0
-15 -30 -44 0
20 -32 -71 0
-22 -39 -44 0
49 -51 67 0
-28 -31 70 0
43 63 -67 0
-2 -5 53 0
-1 3 43 0
-21 48 60 0
-3 52 -61 0
2 -10 24 0
-18 29 -69 0
47 74 75 0
-30 -35 52 0
-27 47 55 0
35 -47 59 0
11 -15 -27 0
23 48 -71 0
9 -27 28 0
-10 -32 -33 0
11 15 28 0
4 -18 -51 0
-19 23 60 0
33 52 -63 0
-5 13 -57 0
37 -64 73 0
19 27 68 0
30 -35 -41 0
23 -33 -55 0
37 38 -48 0
-21 -48 -66 0
-3 27 -38 0
7 38 50 0
-6 12 22 0
27 -62 74 0
-3 10 32 0
1 -16 -26 0
-18 26 55 0
10 -70 71 0
6 49 -64 0
8 -23 53 0
13 -48 58 0
3 4 55 0
-40 -42 44 0
-14 63 72 0
-4 38 63 0
16 26 58 0
-35 42 -53 0
9 23 27 0
2 17 -21 0
-2 5 -8 0
36 -65 74 0
43 48 -56 0
16 -26 75 0
-11 43 67 0
-29 55 68 0
5 15 24 0
-24 42 66 0
16 28 -34 0
40 56 -60 0
7 19 -70 0
38 -49 57 0
7 27 -52 0
13 15 -54 0
-46 59 62 0
42 -61 -75 0
-51 55 56 0
16 -54 -66 0
1 -33 -55 0
43 63 67 0
12 72 -74 0
-57 -64 -70 0
1 50 74 0
7 -24 54 0
-5 27 30 0
-22 58 -73 0
46 -52 -55 0
-31 -41 -42 0
-24 -61 72 0
11 30 -75 0
-30 -46 -55 0
-40 -67 -70 0
1 32 68 0
8 -12 24 0
9 -26 47 0
-5 29 71 0
15 -33 -44 0
18 -51 -59 0
2 30 63 0
20 29 58 0
28 45 48 0
14 46 -54 0
-1 -29 -51 0
34 -45 54 0
-49 -62 -71 0
-8 -16 -55 0
27 -41 47 0
-11 18 -53 0
18 28 69 0
-8 -35 -49 0
8 -15 -69 0
13 -39 57 0
18 -39 61 0
-54 68 -71 0
62 -69 -71 0
-24 42 -62 0
38 -58 -75 0
-26 -40 60 0
-34 -36 -37 0
-1 41 65 0
-29 -51 -68 0
10 -25 -59 0
-25 -29 40 0
12 42 -68 0
-19 28 -65 0
1 -7 -26 0
-36 -59 70 0
22 -24 69 0
-5 -33 -37 0
-1 4 -54 0
-34 -48 -63 0
37 -39 70 0
26 36 51 0
-29 -50 59 0
-8 11 -71 0
3 44 -59 0
14 -30 -52 0
-13 -54 56 0
21 -28 -29 0
-17 -57 64 0
-6 -8 -47 0
-28 50 -56 0
-45 52 -67 0
-42 -71 74 0
5 -40 -72 0
2 26 -74 0
24 40 50 0
23 -50 61 0
36 -44 -72 0
-25 -44 -46 0
-5 13 -42 0
-30 36 -40 0
30 41 -59 0
54 -68 -72 0
35 65 71 0
-33 -63 -74 0
-7 56 59 0
32 51 75 0
-51 -52 71 0
-17 35 -75 0
-38 -46 -64 0
-24 55 -65 0
-33 42 73 0
34 -49 -53 0
-26 -57 -59 0
-38 -50 54 0
26 29 -74 0
-28 56 -58 0
-7 24 -49 0
-47 67 -70 0
6 17 -59 0
-8 9 -57 0
57 -69 -71 0
-27 -53 -71 0
3 -18 26 0
11 -19 27 0
-16 -30 42 0
2 60 -63 0
18 -23 24 0
-23 -35 -48 0
20 -35 51 0
22 -28 -55 0
-31 -36 50 0
-1 -9 19 0
-51 53 60 0
2 28 64 0
17 59 63 0
10 70 -75 0
-3 -28 -53 0
-4 32 -37 0
55 63 64 0
-13 -35 66 0
-11 22 -23 0
17 23 -74 0
20 -53 -61 0
-13 51 -59 0
15 -42 -63 0
6 -28 46 0
-1 74 75 0
13 -33 53 0
35 -48 75 0
-26 56 -57 0
33 52 -53 0
26 53 -58 0
-13 22 -74 0
19 -29 72 0
-5 16 -18 0
14 -24 43 0
1 -36 -41 0
-25 26 -64 0
29 -56 67 0
17 56 65 0
-23 39 -60 0
56 57 -58 0
-30 -51 61 0
65 68 74 0
33 -40 -66 0
-23 59 65 0
4 15 72 0
8 20 -48 0
-1 -54 -71 0
26 -46 -62 0
-3 -14 55 0
-20 31 73 0
-8 -62 64 0
-14 -61 75 0
35 66 -67 0
19 32 38 0
5 50 -54 0
6 -25 -43 0
-54 -55 59 0
-20 23 41 0
9 -31 -62 0
9 48 59 0
9 10 -39 0
7 19 -50 0
17 -52 67 0
9 -26 -54 0
-6 16 37 0
21 -34 -57 0
40 62 75 0
-1 -22 -60 0
-6 26 -51 0
4 66 69 0
-8 40 52 0
-3 -31 47 0
-5 66 69 0
-6 46 72 0
37 46 72 0
37 38 -47 0
-2 5 27 0
30 -44 55 0
69 74 75 0
-1 -8 29 0
4 54 63 0
-8 55 74 0
24 32 69 0
-25 -58 -60 0
5 -8 -60 0
39 54 70 0
27 51 -74 0
2 -41 -70 0
20 -44 48 0
7 41 69 0
-22 -50 -57 0
53 60 -64 0
-19 31 70 0
5 52 -58 0

