c Generated by rand.py 20 90 3 825802
c Generator source: https://github.com/aaw/sat/blob/master/gen/rand.py
p cnf 20 90
-7 12 18 0
1 5 -8 0
-8 -15 -17 0
3 18 19 0
-13 15 -20 0
7 -10 -11 0
-3 -11 -16 0
7 -14 15 0
-4 -7 10 0
1 2 7 0
9 -12 17 0
1 4 -15 0
5 8 -17 0
-3 7 -17 0
-2 6 18 0
-3 15 20 0
9 16 18 0
-16 18 -19 0
-1 -6 -7 0
1 -4 -7 0
-8 -11 -13 0
12 19 -20 0
-1 -3 -19 0
1 5 18 0
-4 -5 -8 0
-3 -7 20 0
14 -16 -18 0
6 13 14 0
2 -6 15 0
-5 -7 -15 0
-2 3 -12 0
-1 5 13 0
-11 -18 -19 0
3 9 -11 0
-4 -12 -15 0
-15 17 -18 0
8 -15 18 0
-6 -10 -15 0
1 10 -17 0
-3 10 14 0
1 12 -14 0
-4 8 13 0
3 -12 14 0
6 9 -18 0
-1 -8 -15 0
6 -7 14 0
-8 -11 15 0
-5 -11 -20 0
4 8 18 0
10 16 18 0
-5 -11 -14 0
6 -15 -18 0
7 -10 20 0
10 -11 -17 0
3 -15 -20 0
2 15 -17 0
10 11 -15 0
9 15 20 0
7 -12 -14 0
2 10 13 0
-3 -19 -20 0
2 3 15 0
-5 -7 17 0
1 5 -19 0
6 -9 -10 0
-9 -15 -18 0
4 5 15 0
3 7 -19 0
-4 -7 -12 0
-9 12 -19 0
10 -11 16 0
2 -6 13 0
6 11 20 0
14 16 20 0
-7 -11 -12 0
8 9 -10 0
2 -3 8 0
3 6 18 0
7 -15 -19 0
8 -12 17 0
-2 -17 19 0
-7 9 -19 0
-2 -5 -20 0
-6 7 14 0
4 -5 16 0
-1 3 17 0
3 9 15 0
-10 -16 -20 0
-1 -3 4 0
2 -8 15 0

