c Generated by rand.py 30 135 3 158578
c Generator source: https://github.com/aaw/sat/blob/master/gen/rand.py
p cnf 30 135
8 -9 15 0
16 23 -28 0
13 -25 28 0
-8 -12 16 0
-9 -15 -17 0
3 -8 9 0
22 27 -29 0
-11 -16 20 0
2 -16 27 0
-4 -22 29 0
10 19 28 0
18 19 -23 0
-7 14 17 0
3 -9 -20 0
10 24 25 0
-13 16 21 0
-2 5 -16 0
-16 26 27 0
-3 -18 -30 0
-6 -22 -24 0
4 -12 26 0
-2 8 18 0
1 17 18 0
-16 -25 -29 0
-6 17 22 0
6 -18 28 0
-12 20 25 0
-11 15 26 0
-10 13 -28 0
-2 -17 -19 0
1 -3 -30 0
-10 11 -26 0
2 5 14 0
-8 -15 -19 0
19 -22 27 0
2 10 -25 0
-8 24 29 0
-10 -16 22 0
7 14 25 0
2 24 -29 0
2 19 -21 0
3 9 -19 0
5 12 22 0
-4 12 13 0
4 9 14 0
-9 -23 -24 0
-9 15 -30 0
-1 9 30 0
-11 19 24 0
-19 -23 -25 0
18 27 28 0
24 27 -28 0
1 -3 -28 0
4 -5 -25 0
-14 -28 -30 0
-5 -16 -23 0
16 21 24 0
2 -16 23 0
5 -9 22 0
1 -13 -20 0
-1 5 -29 0
12 -20 28 0
2 -10 18 0
1 -5 22 0
-9 -17 21 0
16 17 -24 0
-11 -21 27 0
1 17 -22 0
-6 -15 25 0
7 20 23 0
-8 13 -14 0
-10 17 -30 0
6 -16 -27 0
2 10 27 0
-4 -18 -27 0
2 4 -21 0
6 -17 26 0
-7 16 28 0
21 29 30 0
-9 11 -27 0
-6 7 22 0
9 -17 21 0
6 -12 -19 0
-12 16 -23 0
-2 4 13 0
-7 13 -25 0
-6 11 -26 0
-4 -19 -24 0
8 9 30 0
17 24 28 0
-1 22 -28 0
-3 -10 -21 0
5 28 30 0
-6 -27 30 0
3 -11 -14 0
-20 22 24 0
-13 23 25 0
18 -28 30 0
-8 20 26 0
-12 -14 22 0
14 -19 -26 0
-1 -10 12 0
-14 22 24 0
21 23 -27 0
1 15 -21 0
-1 4 -27 0
-1 -2 10 0
-7 21 -24 0
11 22 -30 0
9 -18 28 0
4 22 -23 0
14 25 28 0
18 -24 -27 0
-5 9 -19 0
-6 8 -23 0
-2 22 30 0
-13 -20 -27 0
6 -19 -23 0
16 26 27 0
-4 -10 21 0
-11 18 20 0
-7 12 -17 0
2 -9 19 0
-6 -11 15 0
13 22 28 0
-16 -19 -22 0
-14 -20 30 0
-4 12 23 0
8 12 -23 0
10 -18 -20 0
2 9 -22 0
-19 -22 -26 0
-16 18 -24 0
9 -14 -30 0
15 -18 21 0

