c Generated by rand.py 30 135 3 585130
c Generator source: https://github.com/aaw/sat/blob/master/gen/rand.py
p cnf 30 135
-12 14 -21 0
5 -6 -20 0
-12 -21 25 0
-12 -27 -28 0
26 27 29 0
10 18 26 0
-10 -25 -29 0
18 -24 29 0
-10 -13 24 0
10 -29 -30 0
-15 -24 -25 0
-2 -11 -12 0
3 9 26 0
13 -16 17 0
9 16 -18 0
-10 11 15 0
17 21 24 0
1 -3 21 0
-14 21 24 0
-2 -26 -29 0
-5 9 -23 0
9 12 28 0
-5 19 -27 0
-13 23 27 0
-18 19 -20 0
1 -4 29 0
11 18 19 0
-5 -10 30 0
7 -17 -24 0
3 16 23 0
-14 19 25 0
10 17 20 0
-5 -15 -24 0
-1 -8 24 0
3 -20 29 0
-6 -23 -30 0
10 -22 30 0
-1 -18 29 0
-9 -15 -21 0
-15 17 -22 0
11 -24 27 0
-7 15 -25 0
-9 -21 -25 0
6 10 23 0
-5 -18 -29 0
-6 -14 23 0
-9 -21 29 0
-12 -17 21 0
-11 -13 26 0
-14 18 -20 0
-8 -9 20 0
-2 8 16 0
-6 14 -22 0
2 -24 27 0
-19 20 -29 0
-5 -8 26 0
-2 14 -21 0
11 -12 -26 0
-2 -22 -30 0
-14 26 -29 0
-1 18 -25 0
-19 -26 27 0
13 19 20 0
1 -10 25 0
8 11 -19 0
5 26 -27 0
3 5 15 0
-6 15 -29 0
-16 22 -29 0
10 15 -24 0
-3 -26 29 0
-9 17 -20 0
3 4 -22 0
9 -23 -28 0
2 -10 16 0
4 13 -24 0
-13 20 26 0
11 16 23 0
-7 10 -23 0
-7 8 -17 0
1 -18 25 0
3 -6 20 0
3 -5 16 0
15 23 -24 0
2 -9 10 0
-3 4 -21 0
-1 5 -26 0
3 7 22 0
2 -8 -29 0
5 28 -30 0
11 18 -29 0
-3 -5 -9 0
8 17 -18 0
7 -10 -13 0
4 -6 -17 0
3 -9 -14 0
2 7 -21 0
2 -25 -30 0
-3 -9 28 0
10 11 12 0
5 -10 -26 0
3 14 15 0
2 -20 -24 0
-10 21 -23 0
-16 -22 24 0
-9 -22 -24 0
-18 20 -25 0
18 -29 -30 0
14 15 -18 0
5 14 23 0
-2 16 -23 0
2 -11 21 0
22 -24 -30 0
-13 25 -27 0
-8 -28 -29 0
4 14 -24 0
6 -10 28 0
3 -22 26 0
-5 -17 -19 0
-17 -19 24 0
13 16 21 0
2 -14 16 0
-3 5 17 0
12 -18 25 0
-14 25 -28 0
-16 -18 -29 0
4 8 22 0
3 9 14 0
1 -5 13 0
-14 -15 -30 0
-15 23 24 0
-5 15 23 0
-9 10 -24 0
-23 -25 29 0
-1 22 -27 0

