c Generated by rand.py 20 90 3 615378
c Generator source: https://github.com/aaw/sat/blob/master/gen/rand.py
p cnf 20 90
11 12 19 0
8 -9 -12 0
-8 10 16 0
5 -9 20 0
7 10 11 0
-5 -11 -12 0
1 10 18 0
8 -10 -13 0
6 12 -17 0
-1 9 -15 0
-3 -8 12 0
-2 13 18 0
11 17 19 0
2 -9 -14 0
6 12 18 0
-6 12 15 0
-8 10 20 0
-2 10 11 0
-4 -7 20 0
-8 -12 -13 0
13 -15 19 0
-15 18 -20 0
-13 -14 18 0
-1 7 17 0
1 -2 15 0
2 4 -11 0
8 -14 19 0
-5 -14 -17 0
-4 -10 -19 0
4 13 -15 0
-6 -14 18 0
-2 -9 20 0
4 8 -11 0
3 -8 -18 0
-3 -5 17 0
2 10 18 0
-7 -8 -20 0
3 7 -10 0
7 -12 -19 0
9 -13 20 0
5 8 15 0
-7 -13 20 0
1 5 -14 0
3 -9 19 0
4 -8 -11 0
4 -5 16 0
-2 6 -17 0
11 -14 -17 0
-2 4 -18 0
2 5 -13 0
-1 11 -15 0
-6 -14 15 0
-4 12 15 0
2 -12 -15 0
1 2 6 0
7 13 20 0
5 -9 -17 0
4 -8 20 0
7 12 18 0
4 -9 -13 0
-4 5 6 0
-10 13 19 0
-3 -16 -18 0
-7 11 14 0
9 17 19 0
-4 -18 19 0
1 -3 -14 0
-1 -11 18 0
8 10 -18 0
-2 8 -17 0
9 11 13 0
-9 -19 -20 0
10 -12 14 0
13 -17 19 0
-11 13 -20 0
-2 3 17 0
-8 14 18 0
-6 7 17 0
-8 -9 13 0
-9 11 20 0
-2 7 14 0
1 -8 -13 0
9 11 -20 0
6 -14 -17 0
6 -13 14 0
-3 -19 20 0
-10 13 -19 0
1 13 -14 0
-2 5 -20 0
9 10 -12 0

