c Generated by rand.py 30 135 3 244183
c Generator source: https://github.com/aaw/sat/blob/master/gen/rand.py
p cnf 30 135
9 -14 28 0
-3 9 23 0
-8 -14 -27 0
-1 -7 -26 0
-2 -15 19 0
-7 -14 -22 0
7 12 -30 0
-10 -15 -29 0
-6 21 29 0
-7 27 30 0
-3 8 13 0
-11 14 -20 0
-7 8 -26 0
2 -6 -17 0
1 -7 26 0
2 4 7 0
13 -15 -20 0
4 18 -25 0
-23 -25 27 0
4 6 7 0
10 -13 19 0
7 16 -20 0
14 -23 -28 0
11 -13 -22 0
8 10 12 0
-13 -20 -26 0
1 5 17 0
-12 20 -21 0
-6 -24 -28 0
-1 4 -26 0
-2 -17 22 0
17 19 26 0
-19 -26 27 0
17 21 26 0
-14 20 -25 0
2 14 16 0
12 20 -28 0
16 -21 24 0
-9 19 26 0
-6 -9 13 0
10 -12 25 0
1 11 -28 0
-2 9 -30 0
-1 -3 9 0
7 17 -24 0
-5 -13 18 0
12 15 -30 0
-1 -5 -13 0
2 14 -22 0
-18 -21 25 0
-10 -27 30 0
-1 23 27 0
1 7 -17 0
-5 -19 26 0
5 -7 -29 0
10 17 30 0
1 -15 22 0
-3 24 28 0
1 -18 -22 0
-5 9 24 0
-12 -19 -28 0
9 21 30 0
3 4 16 0
5 -12 25 0
12 -14 -21 0
2 -13 -28 0
3 -11 -26 0
14 16 17 0
1 13 24 0
-5 -17 27 0
2 13 -26 0
11 25 -27 0
-13 19 -27 0
1 -6 27 0
-14 -16 -24 0
-10 15 19 0
-13 15 -22 0
3 12 25 0
9 -12 -13 0
4 -23 24 0
3 6 -21 0
-16 -22 29 0
12 -13 -16 0
-6 26 28 0
5 -11 19 0
1 24 -27 0
15 -19 -28 0
10 16 -23 0
2 19 -23 0
2 -6 -23 0
1 -4 19 0
-2 8 -30 0
-2 -17 24 0
6 -26 30 0
4 13 17 0
-14 20 30 0
-16 20 24 0
-1 -3 -17 0
9 23 -27 0
-2 -20 -27 0
-1 -9 -30 0
2 -25 -28 0
-1 -3 24 0
3 -7 19 0
1 -21 -29 0
-4 -24 29 0
-6 -13 -20 0
2 17 29 0
4 26 30 0
13 17 -21 0
5 19 26 0
15 -21 23 0
-2 -20 24 0
5 17 30 0
-14 -19 -24 0
-4 -12 25 0
-7 -17 -24 0
3 -24 28 0
-6 7 -22 0
12 -22 23 0
3 10 -28 0
-14 -21 28 0
-13 19 -25 0
8 -15 23 0
-9 10 -27 0
-10 -23 30 0
11 13 16 0
1 -18 -26 0
-9 11 -13 0
9 19 25 0
10 15 18 0
-14 18 22 0
-1 -8 -22 0
7 -17 -24 0
-17 -21 -22 0

