c Generated by rand.py 20 90 3 382341
c Generator source: https://github.com/aaw/sat/blob/master/gen/rand.py
p cnf 20 90
4 -8 -18 0
-5 -17 20 0
1 -11 -19 0
-5 6 14 0
11 17 -18 0
8 -9 -16 0
4 5 12 0
-3 12 14 0
-1 6 18 0
4 -10 -12 0
-1 11 -14 0
6 7 16 0
-4 12 -14 0
-8 11 13 0
-7 -12 -16 0
-3 -5 10 0
-9 10 -16 0
-9 13 -19 0
1 -6 -20 0
8 11 -20 0
-4 7 -14 0
-1 15 -17 0
2 -15 -20 0
2 -10 -12 0
-13 -15 16 0
-2 16 -19 0
-2 -9 19 0
3 14 -20 0
-1 -7 -13 0
3 7 10 0
1 2 12 0
15 18 -19 0
-10 14 17 0
-3 -10 -17 0
2 -6 -11 0
4 6 -10 0
9 -14 20 0
8 10 15 0
-2 8 -11 0
-1 12 -13 0
6 8 -10 0
2 8 18 0
-8 -11 13 0
-4 11 17 0
6 8 -12 0
-6 8 18 0
11 -18 -20 0
10 13 15 0
-5 -8 18 0
2 15 -20 0
-13 -14 -19 0
2 -17 -20 0
1 4 -11 0
6 -16 -19 0
2 10 19 0
-2 -12 20 0
4 7 8 0
-3 -12 -15 0
5 6 -7 0
-8 -12 -18 0
1 -2 -13 0
2 4 -12 0
-7 16 18 0
-5 -14 -17 0
-1 -12 14 0
-2 -10 -17 0
-14 15 -17 0
10 11 14 0
-1 -3 10 0
-1 -4 10 0
-2 -7 -16 0
-13 -16 20 0
6 -8 9 0
-6 16 -19 0
-5 11 14 0
-3 -5 6 0
-3 12 20 0
-5 8 15 0
-7 -11 18 0
-3 4 -7 0
6 15 -20 0
-7 -11 -13 0
-9 -11 16 0
9 -17 20 0
8 10 13 0
6 -15 -16 0
1 11 15 0
7 -8 11 0
13 -15 20 0
-10 13 18 0

