c Generated by rand.py 30 135 3 288613
c Generator source: https://github.com/aaw/sat/blob/master/gen/rand.py
p cnf 30 135
3 -20 -30 0
-1 -4 -6 0
-2 5 24 0
13 20 21 0
-9 -10 -14 0
-10 -20 30 0
-6 -18 30 0
5 12 -15 0
3 26 -28 0
3 -10 23 0
5 10 25 0
-7 9 -20 0
3 9 10 0
3 -13 14 0
6 10 25 0
1 5 28 0
10 -12 -16 0
-4 10 -13 0
13 -19 24 0
4 7 -21 0
6 17 22 0
10 12 -26 0
-7 25 -28 0
-15 -19 -22 0
7 10 18 0
-1 -2 14 0
-6 -22 26 0
-7 -8 -25 0
-12 -18 -26 0
1 27 -28 0
1 -10 13 0
15 16 -17 0
-1 -4 5 0
7 -14 20 0
11 14 -17 0
-3 -10 24 0
-4 -9 11 0
2 6 18 0
-6 -8 -14 0
-1 -9 19 0
-7 24 25 0
-17 -18 28 0
-1 -17 -19 0
-17 21 -30 0
3 5 14 0
-2 18 25 0
4 -9 -16 0
11 -29 30 0
17 24 26 0
4 8 -13 0
-4 11 -16 0
3 -9 28 0
-17 -18 -24 0
-1 -3 -26 0
-27 -28 -29 0
12 -24 27 0
-1 -15 16 0
13 19 22 0
-14 -22 30 0
-3 19 -22 0
-1 11 -19 0
11 12 23 0
1 6 -27 0
3 13 16 0
3 13 28 0
22 23 -26 0
-7 13 -16 0
-1 -8 -29 0
-4 14 20 0
-12 -13 -28 0
5 24 30 0
-14 15 -24 0
4 19 24 0
-3 -6 -12 0
-2 4 17 0
14 -17 28 0
-5 -9 15 0
-2 7 -22 0
18 19 -26 0
11 19 -23 0
-2 9 -25 0
-2 -20 -28 0
8 -10 12 0
-1 -4 -28 0
-7 19 29 0
16 -24 25 0
2 -8 14 0
22 26 29 0
20 -28 -29 0
-7 -15 -22 0
-6 19 22 0
2 9 -28 0
4 19 -21 0
16 -17 26 0
-18 -20 -23 0
-6 14 21 0
-8 10 12 0
-20 -23 26 0
2 7 -26 0
-6 -7 17 0
4 8 -22 0
-5 -8 -30 0
-5 -14 -19 0
3 -28 29 0
-12 -22 25 0
-4 10 24 0
8 -15 27 0
15 27 30 0
12 17 29 0
-9 23 28 0
-8 14 21 0
1 22 -28 0
7 -8 -15 0
5 -12 25 0
2 -21 27 0
-3 7 -21 0
-20 24 30 0
-7 22 -28 0
-4 -17 -19 0
-10 12 27 0
3 14 -27 0
-2 -27 -29 0
-9 17 -28 0
-6 19 29 0
7 9 -15 0
-2 9 25 0
-1 -6 9 0
2 -16 -30 0
-7 17 28 0
-7 9 -22 0
-2 3 -5 0
-12 26 -30 0
-4 11 -23 0
-17 20 -21 0
-2 6 -8 0

