c Generated by rand.py 20 90 3 480221
c Generator source: https://github.com/aaw/sat/blob/master/gen/rand.py
p cnf 20 90
5 13 16 0
1 4 11 0
1 -2 -12 0
2 -3 -13 0
4 -13 18 0
-8 -11 20 0
-1 -10 -13 0
-8 -11 -18 0
3 -4 -12 0
2 8 14 0
-1 5 -16 0
-2 7 19 0
2 3 15 0
2 -6 9 0
11 16 17 0
-2 -7 -8 0
4 -17 -18 0
-1 -11 17 0
-3 5 11 0
6 12 13 0
-8 16 -18 0
1 11 12 0
-17 18 20 0
3 9 -20 0
-6 12 13 0
-2 9 16 0
-6 -18 19 0
-7 -10 15 0
-6 15 -17 0
7 14 -17 0
10 -14 20 0
9 11 14 0
-5 14 -20 0
-1 -2 -3 0
9 -15 -20 0
12 -17 18 0
4 -19 -20 0
-11 12 -17 0
3 6 15 0
-1 -4 7 0
4 -6 -16 0
-8 -15 20 0
-14 -15 -20 0
-6 8 -17 0
-4 9 18 0
6 -14 17 0
3 -6 -19 0
5 10 -15 0
-4 -8 -12 0
-2 13 18 0
-3 -6 -13 0
2 -6 -18 0
1 -7 -13 0
-10 15 20 0
-9 -13 -14 0
2 -9 -19 0
3 -10 -20 0
-6 14 -15 0
-1 12 -13 0
4 7 -8 0
-5 7 -12 0
1 -3 6 0
4 -15 18 0
1 13 -20 0
2 -16 -20 0
8 -14 -18 0
1 2 8 0
10 13 18 0
-4 -16 18 0
1 -2 10 0
-6 17 -19 0
-10 15 17 0
-4 11 18 0
-5 6 -10 0
9 -11 -15 0
6 -11 -16 0
-2 9 10 0
3 4 -20 0
-2 -10 -15 0
4 -12 13 0
5 -14 -15 0
2 -10 -12 0
1 5 -20 0
-5 -7 9 0
-5 8 -16 0
1 -7 -19 0
-5 -6 -17 0
2 -19 -20 0
-9 13 -18 0
-1 -4 -11 0

