c Generated by rand.py 30 135 3 13674
c Generator source: https://github.com/aaw/sat/blob/master/gen/rand.py
p cnf 30 135
6 -23 -24 0
4 13 -27 0
3 -5 -16 0
14 -25 -28 0
-14 -19 -24 0
8 12 -16 0
1 -28 30 0
4 6 -17 0
-5 14 19 0
4 6 -16 0
-11 15 25 0
2 23 -29 0
-11 -19 20 0
-18 23 27 0
1 -25 30 0
-1 -3 26 0
5 8 -12 0
6 22 -28 0
-4 -17 -29 0
-16 20 -30 0
11 -19 28 0
8 -23 28 0
25 -26 27 0
-18 -22 -24 0
-10 12 -19 0
-3 17 22 0
-9 17 26 0
-12 13 -22 0
-2 28 -29 0
20 24 -27 0
-23 -25 30 0
15 27 -29 0
6 -16 -24 0
-8 -9 13 0
-2 20 -24 0
-5 -16 24 0
-2 -16 30 0
-2 17 18 0
8 -13 24 0
-4 10 -19 0
4 27 30 0
-5 12 -24 0
-12 15 -20 0
1 6 -9 0
6 12 -28 0
18 -19 -21 0
2 -8 -15 0
-8 -15 -17 0
8 15 -25 0
-9 -13 26 0
-5 19 29 0
-7 17 25 0
1 21 -22 0
-5 -6 -29 0
22 -27 30 0
2 8 17 0
6 -18 22 0
14 16 21 0
-8 11 -14 0
-11 26 27 0
3 10 26 0
-16 21 22 0
-1 2 -22 0
11 -22 30 0
14 25 27 0
22 25 30 0
-9 24 28 0
-20 26 -29 0
-7 9 18 0
-3 -4 27 0
1 7 30 0
6 15 -23 0
-4 -11 -15 0
-4 7 -22 0
-11 -15 25 0
8 -13 18 0
-7 -16 -20 0
-6 -25 30 0
6 21 26 0
-2 8 -11 0
-2 9 11 0
12 14 29 0
-1 11 14 0
7 10 13 0
7 19 28 0
6 -12 -18 0
-4 7 17 0
9 -11 13 0
-11 -24 25 0
2 -5 21 0
-18 19 28 0
-4 7 26 0
13 15 -16 0
-9 -15 17 0
2 5 6 0
-2 -19 -20 0
6 -16 17 0
-5 7 20 0
15 17 20 0
10 -11 -18 0
20 -21 29 0
4 25 -27 0
-14 -17 24 0
-1 -2 12 0
-5 -18 25 0
-7 -14 -28 0
-12 17 20 0
-11 -18 20 0
9 16 -20 0
4 -7 -19 0
5 -24 -25 0
8 -17 22 0
5 -14 19 0
10 -26 -28 0
5 25 26 0
1 -12 -29 0
6 14 25 0
13 -17 28 0
14 27 -29 0
8 -22 -26 0
-3 25 28 0
13 14 26 0
-7 -15 -23 0
-14 21 24 0
8 9 20 0
-14 -18 28 0
-6 27 -29 0
-11 17 -20 0
-5 -12 -30 0
-2 15 -25 0
-11 -12 -30 0
18 22 -29 0
-12 23 29 0
-11 20 21 0
6 -12 22 0

