c Generated by rand.py 20 90 3 135971
c Generator source: https://github.com/aaw/sat/blob/master/gen/rand.py
p cnf 20 90
2 -9 15 0
3 -8 10 0
-5 -18 -19 0
2 13 -15 0
1 -3 -6 0
8 -10 11 0
14 -17 18 0
1 -5 -6 0
2 -7 -16 0
-1 8 10 0
9 -11 18 0
-4 12 16 0
-13 -18 -19 0
-2 -14 17 0
-2 4 -7 0
-6 12 15 0
2 -5 -13 0
-4 7 -8 0
4 18 20 0
-3 -8 -14 0
2 -5 -16 0
-5 -12 -15 0
-2 10 14 0
6 -12 -19 0
-4 8 -19 0
1 -13 -16 0
-3 -13 14 0
-2 -15 20 0
1 9 -20 0
-8 9 -19 0
-7 18 20 0
7 -12 19 0
13 14 -20 0
-1 12 -15 0
-5 -11 16 0
-2 6 -17 0
3 15 -18 0
-3 -7 17 0
1 16 18 0
3 12 13 0
1 12 17 0
1 -13 16 0
2 -15 -19 0
-3 9 19 0
1 -4 7 0
-5 6 -15 0
5 -12 18 0
-1 8 -16 0
-12 -13 -17 0
2 18 20 0
-4 -7 12 0
-5 -13 -19 0
1 15 -20 0
2 17 18 0
-12 -19 -20 0
-4 -6 20 0
1 -6 -12 0
9 14 20 0
-3 4 7 0
-11 13 -15 0
3 11 13 0
-12 13 18 0
-7 -15 20 0
4 -10 12 0
10 13 -15 0
6 11 20 0
-6 7 -18 0
-5 -10 -19 0
1 -3 15 0
-12 13 14 0
-5 8 11 0
1 -2 4 0
-4 11 18 0
15 -19 20 0
2 4 9 0
-8 -18 19 0
-5 12 18 0
6 -13 18 0
-2 -6 -8 0
-6 8 -11 0
-1 2 3 0
-3 11 18 0
-6 9 -13 0
13 -14 20 0
3 7 -14 0
-1 10 11 0
-5 -8 -15 0
4 12 20 0
3 14 19 0
2 -12 -14 0

