c Generated by rand.py 20 90 3 789262
c Generator source: https://github.com/aaw/sat/blob/master/gen/rand.py
p cnf 20 90
-4 -11 -14 0
2 8 -11 0
-5 -11 20 0
6 -9 14 0
-7 -9 -14 0
-2 4 -5 0
1 -13 -18 0
6 -13 -19 0
5 8 -19 0
-1 15 16 0
3 10 -14 0
15 -16 -18 0
-3 -4 -20 0
3 -13 -15 0
-1 2 14 0
-9 14 19 0
10 19 20 0
-6 -13 20 0
3 -9 -10 0
-9 -16 17 0
-14 -17 -18 0
2 -10 16 0
-6 -10 -20 0
-3 10 -17 0
-5 -13 -19 0
-15 -16 17 0
-5 10 18 0
3 -6 -12 0
-1 10 -13 0
2 -10 -19 0
4 8 -12 0
-2 14 -20 0
15 -16 -19 0
-5 7 -17 0
5 13 -15 0
-6 -8 -14 0
-4 -8 15 0
2 -4 -9 0
-4 -8 -13 0
-2 5 -12 0
8 -12 -16 0
3 12 -18 0
-9 -13 18 0
-5 -10 18 0
-8 14 19 0
10 16 18 0
3 17 19 0
-12 14 -19 0
-4 8 -14 0
17 -18 -20 0
-1 11 18 0
11 -12 -14 0
-9 -11 -16 0
7 -9 15 0
-2 7 8 0
-12 14 -20 0
2 4 -14 0
6 -8 13 0
11 -12 15 0
-10 13 -18 0
-8 -9 18 0
2 7 -9 0
7 19 20 0
-6 -8 19 0
-2 -6 13 0
3 8 20 0
-2 -4 -8 0
8 11 -17 0
-8 -9 20 0
-2 11 -20 0
-1 3 12 0
3 13 14 0
2 -7 -9 0
6 -10 -17 0
9 -15 16 0
-3 9 -15 0
-2 -6 8 0
-10 12 -17 0
-7 8 12 0
10 -12 19 0
6 16 -18 0
-3 8 -13 0
4 8 19 0
1 17 -19 0
5 -15 17 0
-4 -5 9 0
1 -4 -18 0
-14 18 19 0
4 -17 20 0
4 -6 11 0

