c Generated by rand.py 30 135 3 25491
c Generator source: https://github.com/aaw/sat/blob/master/gen/rand.py
p cnf 30 135
8 -16 17 0
8 -9 -10 0
1 6 19 0
-6 -14 18 0
4 -12 27 0
6 -10 -14 0
7 9 -11 0
-17 -25 -26 0
8 -9 13 0
1 -12 27 0
-14 24 30 0
10 -11 17 0
-2 9 -29 0
17 -18 20 0
1 -2 -18 0
-3 6 -11 0
12 -16 30 0
5 -19 29 0
-8 -29 30 0
3 4 -21 0
17 24 -27 0
-2 9 -26 0
6 27 30 0
-1 5 -23 0
12 16 20 0
-10 -28 -29 0
-4 -8 18 0
-18 29 30 0
3 -21 -25 0
-5 9 16 0
6 -16 24 0
-5 20 24 0
-4 -8 16 0
9 -27 -30 0
14 -24 -26 0
-3 -8 -18 0
6 13 -28 0
8 -19 28 0
2 17 -27 0
-12 -26 27 0
2 -8 16 0
-1 6 -10 0
3 -19 -29 0
17 -18 21 0
5 9 -11 0
-6 10 -27 0
10 -11 30 0
13 23 29 0
7 9 24 0
2 11 -26 0
1 4 -29 0
20 -27 -29 0
6 16 -20 0
12 27 30 0
9 -22 -28 0
-7 -9 -23 0
9 26 27 0
7 -15 19 0
-11 26 28 0
9 -27 28 0
11 14 25 0
-10 20 -22 0
-10 21 -25 0
3 4 30 0
7 -16 -23 0
-12 -14 -25 0
4 -15 -19 0
-17 19 23 0
15 -19 -24 0
12 -16 24 0
23 25 -27 0
-11 18 27 0
2 21 -24 0
1 -9 30 0
21 -22 -29 0
-7 -13 23 0
-1 -5 -24 0
-6 12 -30 0
5 -9 29 0
-2 20 21 0
-4 20 21 0
-16 17 -30 0
8 11 -20 0
-13 -14 -17 0
-4 -18 20 0
2 -19 -29 0
8 14 28 0
4 -27 -30 0
5 22 -28 0
22 -25 -27 0
-2 21 27 0
-9 11 29 0
1 -25 -26 0
2 -22 -25 0
-21 26 27 0
-17 -27 29 0
9 24 26 0
-7 -20 25 0
2 -24 -25 0
5 24 -29 0
-3 -6 28 0
7 14 -17 0
-5 9 -30 0
-8 20 22 0
16 19 26 0
-8 18 26 0
-9 -20 27 0
-9 13 -26 0
4 -12 -18 0
-3 -28 30 0
10 27 29 0
13 28 -29 0
-2 14 24 0
8 11 27 0
-3 26 -27 0
-6 13 25 0
16 18 26 0
-1 -15 -22 0
-14 17 21 0
2 21 -29 0
5 11 -19 0
9 21 -30 0
12 20 27 0
-2 -7 -17 0
-6 -22 -24 0
-2 7 18 0
-3 -10 30 0
1 -4 -24 0
15 16 30 0
-9 15 21 0
-13 -27 29 0
5 14 18 0
-6 -16 -27 0
-3 8 -21 0
-5 -6 -7 0

