c Generated by rand.py 30 135 3 444936
c Generator source: https://github.com/aaw/sat/blob/master/gen/rand.py
p cnf 30 135
5 -19 -26 0
-14 -18 -24 0
12 -20 24 0
6 11 -21 0
-10 -21 23 0
7 -8 15 0
-14 19 20 0
13 24 30 0
-10 -11 23 0
-4 -14 21 0
-6 -8 -23 0
12 -23 -27 0
-9 13 29 0
-8 -11 18 0
6 -14 30 0
2 -11 -30 0
6 -13 -16 0
3 26 -28 0
-5 11 -25 0
-4 -16 -20 0
12 21 -22 0
8 18 25 0
-1 19 -27 0
-10 12 -15 0
19 -29 30 0
-9 -10 21 0
4 -24 29 0
22 23 -27 0
9 -15 -22 0
16 17 26 0
-17 -23 -28 0
11 19 -26 0
-1 8 29 0
-5 9 -25 0
-11 -17 23 0
-4 -11 -13 0
18 21 26 0
-13 -23 -25 0
-2 -4 -23 0
6 -25 -26 0
22 -24 -29 0
4 -12 15 0
-16 -25 -29 0
4 8 30 0
5 18 -26 0
6 -11 28 0
-3 -12 15 0
-3 9 23 0
1 -7 23 0
9 14 -30 0
-8 -17 -25 0
-2 -15 22 0
2 4 -12 0
15 -18 -29 0
2 -9 26 0
-1 -11 -17 0
1 2 19 0
9 13 -25 0
-2 -6 -14 0
1 -21 30 0
-20 22 30 0
13 19 -27 0
10 -11 -26 0
3 7 27 0
-12 22 -28 0
-15 -22 27 0
-19 -23 28 0
12 16 -19 0
9 -18 -29 0
-4 -6 23 0
-1 -5 -19 0
10 -15 -27 0
-6 -7 27 0
-9 21 -25 0
-1 7 -27 0
-7 19 28 0
-12 -26 -28 0
10 17 -25 0
8 -22 -26 0
-3 10 -22 0
-1 2 4 0
9 20 -26 0
18 -19 -24 0
-3 5 -23 0
-3 15 23 0
-8 19 -21 0
-7 -15 16 0
-3 5 -6 0
-8 -22 -23 0
-4 9 12 0
2 13 -18 0
-13 24 27 0
-14 -20 27 0
-5 -6 -22 0
5 -20 -30 0
-14 21 -26 0
4 11 -23 0
-7 21 28 0
7 14 30 0
24 -27 -30 0
5 14 18 0
11 19 -27 0
-21 22 27 0
-11 -18 25 0
-7 8 -14 0
-4 -16 17 0
10 14 22 0
-2 -13 27 0
1 15 -21 0
8 -19 -28 0
-16 -19 21 0
-11 -14 -30 0
15 19 -25 0
-3 28 30 0
2 10 11 0
-6 -23 28 0
-4 -20 21 0
-4 7 -24 0
10 -12 24 0
-3 11 16 0
-6 -14 -27 0
16 17 25 0
13 20 23 0
6 7 13 0
-2 6 24 0
3 25 26 0
3 20 -27 0
6 15 25 0
-5 15 20 0
-4 6 24 0
-3 -16 -29 0
-6 12 -30 0
10 14 -17 0
-3 -21 28 0
-2 21 -26 0

