c Generated by rand.py 30 135 3 568372
c Generator source: https://github.com/aaw/sat/blob/master/gen/rand.py
p cnf 30 135
13 -16 17 0
8 15 16 0
5 -12 -24 0
-14 20 24 0
-4 -11 -24 0
-1 -4 8 0
-14 19 27 0
3 9 -28 0
-2 -15 -21 0
-10 16 -28 0
9 11 22 0
-20 27 28 0
5 -19 24 0
8 -27 -28 0
4 -17 -30 0
3 -8 20 0
5 17 -27 0
-25 -26 27 0
-6 15 24 0
10 -11 -19 0
7 8 -30 0
-14 18 30 0
-10 13 -23 0
4 -19 21 0
6 -20 30 0
8 10 30 0
1 5 -22 0
5 6 9 0
11 17 -22 0
4 17 -27 0
-18 -28 30 0
1 -12 -17 0
5 6 -16 0
8 14 -26 0
3 -22 -30 0
-18 19 -25 0
-2 -6 -10 0
5 -11 12 0
-4 -12 -25 0
-6 15 21 0
-6 14 -28 0
-1 14 -27 0
1 -9 25 0
-5 -9 -21 0
14 -16 28 0
-6 8 19 0
-17 -22 -28 0
-3 4 -11 0
5 -11 -24 0
-9 18 27 0
-8 -9 -14 0
3 -11 -27 0
1 -8 26 0
1 8 20 0
7 -20 -26 0
-2 25 -27 0
2 6 30 0
2 8 -29 0
-27 28 29 0
8 -17 22 0
16 -17 -30 0
-1 -15 24 0
13 23 -27 0
-21 -23 24 0
-3 8 22 0
-2 19 24 0
11 -17 25 0
3 6 -26 0
2 -4 29 0
-6 7 22 0
3 -9 -11 0
5 -7 -30 0
-20 -22 27 0
-2 -15 25 0
5 -16 -19 0
1 2 4 0
-10 -18 26 0
18 22 -24 0
-8 17 -30 0
1 -6 -26 0
1 4 18 0
-6 -13 24 0
9 10 -21 0
-2 7 -30 0
2 -18 -19 0
15 -18 23 0
-1 4 -19 0
4 -5 12 0
-11 -23 29 0
-7 -14 -17 0
-6 10 28 0
-6 14 16 0
-3 -10 -11 0
9 -13 30 0
-17 -19 26 0
8 -10 -22 0
5 -18 -25 0
-3 -6 18 0
5 20 -24 0
-2 17 29 0
2 7 -18 0
-14 21 -23 0
9 -11 -25 0
7 13 -16 0
-6 -19 23 0
-9 10 -28 0
-12 -17 -28 0
-10 14 -20 0
-7 15 -24 0
-1 21 -23 0
2 -10 -26 0
6 -11 -19 0
-5 -18 19 0
13 14 30 0
12 -28 -30 0
-5 -10 21 0
2 4 -7 0
13 22 -23 0
1 -3 5 0
-4 19 -21 0
18 27 30 0
-1 4 -18 0
-5 6 -9 0
-1 -4 -22 0
4 11 -12 0
-3 9 25 0
-1 -20 -21 0
10 -14 24 0
-4 -10 26 0
-2 28 29 0
-2 6 15 0
10 -15 -17 0
-6 16 -18 0
-18 19 -30 0
-5 7 15 0

