c Generated by rand.py 20 90 3 219842
c Generator source: https://github.com/aaw/sat/blob/master/gen/rand.py
p cnf 20 90
-3 5 -11 0
-6 7 17 0
-7 14 15 0
5 -13 16 0
13 17 -18 0
6 11 -12 0
3 -11 19 0
-1 8 -14 0
5 -17 20 0
-6 10 -17 0
4 12 -20 0
13 -14 18 0
7 14 -15 0
-3 12 -19 0
6 10 15 0
1 5 11 0
9 10 18 0
3 5 9 0
15 18 -20 0
-3 -9 13 0
-7 8 -17 0
1 -4 16 0
-7 19 -20 0
-2 -9 -16 0
-4 -9 12 0
2 -4 9 0
1 9 11 0
-1 10 -19 0
5 7 -20 0
-1 13 17 0
5 13 -16 0
4 6 16 0
3 6 9 0
-11 13 17 0
-1 2 11 0
-10 -14 15 0
-1 13 -18 0
-1 -6 -10 0
8 16 18 0
5 16 -20 0
-8 10 13 0
8 16 -19 0
-2 5 -12 0
1 8 -14 0
1 -8 15 0
3 -13 14 0
-3 -5 -12 0
8 -16 20 0
3 7 10 0
-7 14 -17 0
-3 -4 -15 0
1 4 9 0
7 -10 17 0
-11 16 -20 0
6 7 18 0
2 -3 11 0
1 3 -5 0
7 10 16 0
10 13 16 0
3 -9 15 0
1 15 17 0
-1 -10 20 0
10 -14 -18 0
-10 11 17 0
-3 8 -10 0
4 -7 13 0
-2 -4 17 0
6 -10 -17 0
3 17 18 0
7 -11 -14 0
6 9 -13 0
2 -14 -18 0
2 -18 19 0
3 -12 20 0
-5 7 -19 0
8 -15 18 0
-1 -6 9 0
3 -6 12 0
3 7 19 0
-3 9 -14 0
1 12 -16 0
-5 19 20 0
7 11 -14 0
7 14 -19 0
-3 -12 -13 0
-4 -7 8 0
-6 -13 -20 0
-4 5 14 0
-4 13 -19 0
-1 8 -16 0

