c Generated by rand.py 20 90 3 3157
c Generator source: https://github.com/aaw/sat/blob/master/gen/rand.py
p cnf 20 90
-7 9 -19 0
9 15 16 0
4 -10 -20 0
6 -11 14 0
15 17 18 0
-16 17 -19 0
-1 -13 16 0
3 -12 -14 0
12 -15 -16 0
-8 13 16 0
-10 -18 20 0
-4 5 12 0
6 14 -15 0
6 -9 -18 0
3 -19 -20 0
11 12 16 0
2 8 11 0
4 8 10 0
9 -10 13 0
-1 5 -15 0
5 -9 12 0
1 -4 -17 0
1 6 -18 0
3 10 -11 0
7 9 11 0
15 -17 -19 0
-5 -13 -18 0
5 6 11 0
3 -10 -19 0
-1 -5 19 0
-5 -12 19 0
-5 9 -17 0
-2 16 20 0
-4 -14 15 0
4 -5 9 0
3 9 -18 0
-3 -11 16 0
-4 10 -18 0
-6 -8 -11 0
14 16 -20 0
5 -10 -18 0
-11 15 -17 0
-1 11 -20 0
-9 14 -20 0
4 -9 20 0
-9 -13 -17 0
3 -7 -10 0
-2 7 17 0
-4 9 -14 0
-9 -10 14 0
-6 10 -11 0
-2 13 -14 0
-6 10 -17 0
5 -16 20 0
-7 10 14 0
-13 -16 -18 0
-7 -10 14 0
2 6 -20 0
5 6 20 0
-1 7 -13 0
-5 7 -18 0
8 -10 -17 0
2 6 -7 0
-4 -8 -10 0
5 -6 7 0
1 -10 17 0
9 10 14 0
-12 -13 17 0
-3 -5 -15 0
-2 -3 -19 0
3 7 -13 0
-3 6 -19 0
-9 -15 -16 0
-8 17 -18 0
1 -7 11 0
-2 11 -13 0
12 -16 -17 0
2 -5 17 0
5 7 11 0
-10 15 20 0
-1 -7 -17 0
5 14 -17 0
6 11 -12 0
-4 -15 18 0
-2 6 -12 0
-6 9 -10 0
-7 8 -19 0
-7 -17 19 0
-6 14 18 0
2 9 -12 0

