c Generated by rand.py 30 135 3 349724
c Generator source: https://github.com/aaw/sat/blob/master/gen/rand.py
p cnf 30 135
9 18 29 0
3 -5 -11 0
-14 -16 -20 0
4 -19 -29 0
-15 17 25 0
-19 20 29 0
-22 23 -26 0
9 25 -30 0
-9 -20 24 0
5 -15 -29 0
7 -10 30 0
-4 -22 25 0
1 27 29 0
-25 -27 -30 0
1 -8 9 0
-4 19 -22 0
-3 10 -18 0
13 -21 -24 0
-2 -22 -25 0
-5 16 17 0
-6 -19 30 0
9 15 -26 0
11 -17 -18 0
8 9 11 0
2 26 -27 0
-1 3 -30 0
1 -9 12 0
-1 3 20 0
9 -16 23 0
6 -28 29 0
-22 -23 -30 0
-5 -9 25 0
1 -8 14 0
-4 12 -29 0
5 8 -28 0
-2 -16 -21 0
3 -17 23 0
21 25 28 0
-11 -21 30 0
7 -12 24 0
-17 24 25 0
-6 -17 26 0
7 14 -19 0
-3 24 -27 0
12 20 29 0
-3 -9 -28 0
8 17 -21 0
-7 -9 -27 0
1 17 27 0
12 20 21 0
-2 -9 -17 0
2 16 17 0
2 15 -21 0
-5 -13 -30 0
-5 -13 27 0
6 8 14 0
-8 -12 20 0
2 -8 -25 0
-3 8 29 0
7 15 -16 0
17 20 23 0
-6 -10 -25 0
5 9 -12 0
-3 9 -22 0
-3 13 -26 0
13 15 -17 0
-2 6 7 0
17 -19 -20 0
5 -8 -28 0
-1 -12 28 0
2 3 -21 0
-12 25 27 0
18 -25 29 0
-7 -12 13 0
-9 -17 26 0
16 18 27 0
3 -14 28 0
20 -25 28 0
-3 -20 -25 0
-15 -25 29 0
-3 11 24 0
-2 10 -23 0
-1 4 -21 0
-5 -6 28 0
1 13 -25 0
-8 -14 27 0
-9 -10 -23 0
3 -27 -30 0
4 -23 29 0
-4 16 -21 0
-1 3 -4 0
-1 10 27 0
16 -23 -24 0
-6 -24 30 0
-24 -25 -29 0
13 29 30 0
1 -7 -11 0
7 9 -23 0
2 8 -20 0
-3 10 17 0
1 8 9 0
-20 -25 26 0
-6 -14 -27 0
5 -15 23 0
-2 -18 19 0
7 24 26 0
-9 -17 -27 0
5 -26 -28 0
-17 18 24 0
-1 -4 27 0
-4 -21 -25 0
5 -24 27 0
-2 18 26 0
-2 -19 29 0
-5 6 27 0
8 12 20 0
-4 -12 -24 0
-1 11 20 0
11 13 -16 0
11 12 22 0
6 26 -27 0
12 -24 30 0
-6 -18 26 0
-9 -10 12 0
2 -5 -19 0
17 -21 -30 0
10 -17 23 0
-3 6 22 0
2 12 -29 0
-8 17 19 0
-6 -22 23 0
6 -10 -17 0
1 -12 -20 0
2 -14 30 0
-3 25 30 0

