c Generated by rand.py 20 90 3 432517
c Generator source: https://github.com/aaw/sat/blob/master/gen/rand.py
p cnf 20 90
9 15 -18 0
4 16 -17 0
8 -16 20 0
9 -10 16 0
-2 -5 10 0
1 4 19 0
9 14 -19 0
-4 5 -15 0
-2 -4 -11 0
-5 -8 9 0
5 13 -14 0
-14 -17 -19 0
-3 11 -20 0
5 -11 -16 0
6 -12 -15 0
6 16 20 0
3 15 17 0
-5 -8 18 0
-8 -15 16 0
-3 12 -15 0
6 10 -16 0
-3 -14 -17 0
-6 10 18 0
-10 12 -19 0
3 11 -20 0
-5 -9 -12 0
1 5 14 0
3 -11 -17 0
-9 -13 -17 0
7 -8 -18 0
-2 -4 9 0
5 7 12 0
-1 2 -9 0
-5 7 20 0
1 9 16 0
-7 -12 20 0
4 8 -9 0
8 -14 17 0
8 13 -20 0
-1 -4 -18 0
-2 -5 15 0
4 -7 -16 0
4 -15 19 0
-4 -7 14 0
1 -16 19 0
-1 -3 16 0
-3 -8 -14 0
3 16 -20 0
10 -12 -18 0
-3 5 -14 0
5 7 17 0
11 -17 -18 0
14 17 -18 0
1 14 -18 0
3 -11 15 0
8 -14 19 0
4 -7 18 0
-3 11 -15 0
-3 10 13 0
-1 -4 18 0
-2 -3 7 0
1 -6 19 0
-5 6 -11 0
-3 12 15 0
4 11 19 0
2 -14 15 0
-6 17 -19 0
5 -11 13 0
-8 12 -15 0
7 10 -13 0
-10 17 -19 0
-16 -18 19 0
10 16 20 0
-11 15 20 0
-5 -17 -20 0
-10 16 -20 0
-8 -10 -13 0
4 -12 13 0
-10 16 17 0
-4 5 -20 0
2 -9 -20 0
2 -4 -11 0
2 6 -14 0
8 16 17 0
4 -5 15 0
-11 -12 -18 0
1 -4 8 0
-10 12 -13 0
2 5 -9 0
6 10 -15 0

