c Generated by rand.py 20 90 3 114734
c Generator source: https://github.com/aaw/sat/blob/master/gen/rand.py
p cnf 20 90
5 7 -15 0
-4 9 18 0
7 -11 -12 0
-6 10 -12 0
10 17 19 0
-2 14 19 0
3 -4 -19 0
2 13 -16 0
-7 17 19 0
-5 15 20 0
-6 12 13 0
-8 9 -13 0
-3 -8 -18 0
-7 16 -20 0
3 -9 -18 0
1 -4 -13 0
3 -11 -14 0
-8 -16 17 0
-6 -7 -10 0
-1 -8 -12 0
-5 -8 -16 0
10 -14 -15 0
6 -17 19 0
-5 -11 12 0
-2 15 16 0
1 -8 -15 0
-3 7 13 0
-1 -6 -10 0
-14 15 18 0
11 15 19 0
2 -5 -7 0
-10 13 -17 0
2 -13 -19 0
-3 5 18 0
-5 -11 -14 0
4 -5 -11 0
-5 -11 16 0
-8 -9 14 0
9 10 15 0
-10 14 17 0
-5 -9 -14 0
-3 17 -19 0
3 -10 -19 0
-4 -12 -17 0
5 9 19 0
-5 -8 19 0
-3 9 -11 0
2 -8 11 0
-1 2 16 0
-16 -17 -20 0
-1 -5 -6 0
-3 -13 -20 0
1 4 -9 0
9 -11 -17 0
7 -17 -20 0
-1 7 -16 0
4 6 -20 0
1 -8 12 0
-6 7 -16 0
-4 -10 11 0
-1 -6 -13 0
-4 8 -18 0
10 18 -20 0
-5 -12 -17 0
6 -11 -17 0
-1 9 -11 0
-2 -4 10 0
-8 -12 -15 0
8 -10 -15 0
-4 -8 15 0
6 14 -18 0
-10 -13 18 0
5 -7 10 0
-3 -12 15 0
-5 -14 18 0
-4 5 8 0
-6 -12 -20 0
4 13 20 0
2 -8 -13 0
-9 -17 19 0
-7 -9 11 0
-6 10 11 0
6 8 16 0
-2 -14 -20 0
-10 11 -15 0
4 -6 18 0
2 8 -13 0
7 11 18 0
1 -3 4 0
10 15 16 0

