c Generated by rand.py 30 135 3 653344
c Generator source: https://github.com/aaw/sat/blob/master/gen/rand.py
p cnf 30 135
-11 12 30 0
6 7 -23 0
1 6 27 0
-4 -15 29 0
1 3 4 0
-4 19 23 0
-5 16 -20 0
9 24 25 0
-2 -10 12 0
-1 -15 22 0
-10 13 22 0
-8 10 30 0
-8 -19 22 0
-5 13 18 0
1 3 18 0
8 11 21 0
-20 -23 -30 0
-18 22 -26 0
11 -13 -29 0
14 -20 -23 0
7 -9 -23 0
9 15 30 0
1 -13 -14 0
18 21 29 0
-19 24 25 0
-3 23 24 0
-1 11 12 0
1 9 29 0
-12 -22 -24 0
-11 12 23 0
-11 13 23 0
6 23 24 0
7 -22 26 0
-4 12 18 0
-11 15 16 0
5 14 -20 0
-8 20 -24 0
19 20 28 0
-12 20 29 0
3 -8 28 0
-8 24 -29 0
1 3 -9 0
8 10 -20 0
-11 22 -30 0
21 -23 25 0
2 -14 19 0
-8 -11 18 0
21 -25 30 0
-13 -23 29 0
-4 -20 -21 0
16 -18 19 0
1 2 -21 0
-16 18 29 0
10 19 22 0
-6 -11 -26 0
-2 7 19 0
-12 -15 -23 0
17 -28 30 0
2 -17 28 0
14 -19 22 0
11 19 -20 0
-9 -11 -15 0
-9 11 25 0
2 14 -29 0
15 16 26 0
-2 23 25 0
7 10 -28 0
1 20 -23 0
16 -19 -30 0
-12 18 29 0
-6 -22 25 0
-2 4 -27 0
5 -10 12 0
-2 25 -26 0
1 -11 -30 0
4 9 11 0
-2 3 -12 0
-7 -19 29 0
6 17 -26 0
-1 8 -14 0
1 -7 10 0
21 -24 26 0
-2 13 28 0
15 -21 -24 0
-4 11 -26 0
6 12 -14 0
-3 -12 14 0
-5 20 29 0
7 12 24 0
16 25 26 0
-26 27 29 0
-20 22 27 0
6 -7 12 0
7 17 -26 0
3 9 20 0
3 -21 -22 0
-2 8 12 0
26 -28 -29 0
5 -18 28 0
2 18 29 0
20 27 28 0
-4 5 -22 0
4 -9 11 0
-4 7 9 0
-10 -14 -16 0
-3 -22 -23 0
3 -10 -18 0
-18 19 27 0
8 15 29 0
-5 -9 -18 0
7 18 -19 0
2 -10 -24 0
-12 -21 -23 0
5 20 28 0
-17 18 -29 0
-4 22 -23 0
-17 19 -25 0
13 -14 24 0
15 18 19 0
10 16 27 0
-7 16 29 0
-18 -24 -25 0
-10 19 -30 0
-10 -19 -27 0
1 11 -14 0
-1 3 5 0
1 -6 21 0
16 21 -27 0
23 28 29 0
-11 21 -27 0
7 23 28 0
10 -22 27 0
5 18 19 0
-7 -25 -29 0
10 -14 -29 0

