p cnf 5010 20000
11 -5 -8 -6 0
-11 5 0
-11 8 0
-11 6 0
12 -5 -10 -8 0
-12 5 0
-12 10 0
-12 8 0
13 -5 -3 -1 0
-13 5 0
-13 3 0
-13 1 0
14 -3 -8 -9 0
-14 3 0
-14 8 0
-14 9 0
15 -5 -10 -9 0
-15 5 0
-15 10 0
-15 9 0
16 -4 -9 -1 0
-16 4 0
-16 9 0
-16 1 0
17 -9 -10 -6 0
-17 9 0
-17 10 0
-17 6 0
18 -3 -7 -1 0
-18 3 0
-18 7 0
-18 1 0
19 -1 -2 -10 0
-19 1 0
-19 2 0
-19 10 0
20 -5 -5 -10 0
-20 5 0
-20 5 0
-20 10 0
21 -20 -13 -19 0
-21 20 0
-21 13 0
-21 19 0
22 -14 -11 -13 0
-22 14 0
-22 11 0
-22 13 0
23 -20 -15 -14 0
-23 20 0
-23 15 0
-23 14 0
24 -19 -20 -14 0
-24 19 0
-24 20 0
-24 14 0
25 -20 -16 -17 0
-25 20 0
-25 16 0
-25 17 0
26 -11 -11 -18 0
-26 11 0
-26 11 0
-26 18 0
27 -11 -13 -18 0
-27 11 0
-27 13 0
-27 18 0
28 -17 -11 -19 0
-28 17 0
-28 11 0
-28 19 0
29 -11 -15 -15 0
-29 11 0
-29 15 0
-29 15 0
30 -11 -18 -11 0
-30 11 0
-30 18 0
-30 11 0
31 -22 -22 -26 0
-31 22 0
-31 22 0
-31 26 0
32 -26 -27 -26 0
-32 26 0
-32 27 0
-32 26 0
33 -27 -28 -22 0
-33 27 0
-33 28 0
-33 22 0
34 -29 -21 -25 0
-34 29 0
-34 21 0
-34 25 0
35 -22 -24 -28 0
-35 22 0
-35 24 0
-35 28 0
36 -27 -28 -26 0
-36 27 0
-36 28 0
-36 26 0
37 -27 -22 -21 0
-37 27 0
-37 22 0
-37 21 0
38 -24 -24 -24 0
-38 24 0
-38 24 0
-38 24 0
39 -21 -23 -22 0
-39 21 0
-39 23 0
-39 22 0
40 -22 -30 -24 0
-40 22 0
-40 30 0
-40 24 0
41 -36 -34 -38 0
-41 36 0
-41 34 0
-41 38 0
42 -35 -33 -33 0
-42 35 0
-42 33 0
-42 33 0
43 -33 -39 -40 0
-43 33 0
-43 39 0
-43 40 0
44 -33 -40 -31 0
-44 33 0
-44 40 0
-44 31 0
45 -40 -37 -32 0
-45 40 0
-45 37 0
-45 32 0
46 -36 -38 -38 0
-46 36 0
-46 38 0
-46 38 0
47 -33 -32 -39 0
-47 33 0
-47 32 0
-47 39 0
48 -37 -32 -39 0
-48 37 0
-48 32 0
-48 39 0
49 -38 -39 -38 0
-49 38 0
-49 39 0
-49 38 0
50 -35 -35 -32 0
-50 35 0
-50 35 0
-50 32 0
51 -47 -44 -50 0
-51 47 0
-51 44 0
-51 50 0
52 -46 -45 -50 0
-52 46 0
-52 45 0
-52 50 0
53 -46 -48 -50 0
-53 46 0
-53 48 0
-53 50 0
54 -41 -47 -47 0
-54 41 0
-54 47 0
-54 47 0
55 -49 -44 -48 0
-55 49 0
-55 44 0
-55 48 0
56 -47 -49 -49 0
-56 47 0
-56 49 0
-56 49 0
57 -43 -42 -46 0
-57 43 0
-57 42 0
-57 46 0
58 -50 -44 -49 0
-58 50 0
-58 44 0
-58 49 0
59 -41 -41 -48 0
-59 41 0
-59 41 0
-59 48 0
60 -43 -48 -42 0
-60 43 0
-60 48 0
-60 42 0
61 -54 -52 -52 0
-61 54 0
-61 52 0
-61 52 0
62 -56 -54 -52 0
-62 56 0
-62 54 0
-62 52 0
63 -60 -60 -60 0
-63 60 0
-63 60 0
-63 60 0
64 -55 -60 -56 0
-64 55 0
-64 60 0
-64 56 0
65 -56 -58 -56 0
-65 56 0
-65 58 0
-65 56 0
66 -56 -55 -55 0
-66 56 0
-66 55 0
-66 55 0
67 -52 -60 -56 0
-67 52 0
-67 60 0
-67 56 0
68 -54 -57 -57 0
-68 54 0
-68 57 0
-68 57 0
69 -55 -51 -59 0
-69 55 0
-69 51 0
-69 59 0
70 -51 -54 -58 0
-70 51 0
-70 54 0
-70 58 0
71 -70 -66 -62 0
-71 70 0
-71 66 0
-71 62 0
72 -61 -69 -70 0
-72 61 0
-72 69 0
-72 70 0
73 -61 -68 -70 0
-73 61 0
-73 68 0
-73 70 0
74 -62 -66 -68 0
-74 62 0
-74 66 0
-74 68 0
75 -68 -66 -66 0
-75 68 0
-75 66 0
-75 66 0
76 -62 -69 -63 0
-76 62 0
-76 69 0
-76 63 0
77 -61 -63 -69 0
-77 61 0
-77 63 0
-77 69 0
78 -70 -68 -61 0
-78 70 0
-78 68 0
-78 61 0
79 -68 -66 -70 0
-79 68 0
-79 66 0
-79 70 0
80 -62 -65 -68 0
-80 62 0
-80 65 0
-80 68 0
81 -77 -79 -73 0
-81 77 0
-81 79 0
-81 73 0
82 -71 -74 -72 0
-82 71 0
-82 74 0
-82 72 0
83 -73 -74 -75 0
-83 73 0
-83 74 0
-83 75 0
84 -73 -76 -80 0
-84 73 0
-84 76 0
-84 80 0
85 -77 -71 -79 0
-85 77 0
-85 71 0
-85 79 0
86 -75 -76 -72 0
-86 75 0
-86 76 0
-86 72 0
87 -75 -78 -74 0
-87 75 0
-87 78 0
-87 74 0
88 -76 -79 -75 0
-88 76 0
-88 79 0
-88 75 0
89 -77 -74 -71 0
-89 77 0
-89 74 0
-89 71 0
90 -78 -78 -75 0
-90 78 0
-90 78 0
-90 75 0
91 -88 -86 -83 0
-91 88 0
-91 86 0
-91 83 0
92 -84 -90 -85 0
-92 84 0
-92 90 0
-92 85 0
93 -81 -81 -84 0
-93 81 0
-93 81 0
-93 84 0
94 -83 -88 -82 0
-94 83 0
-94 88 0
-94 82 0
95 -82 -85 -90 0
-95 82 0
-95 85 0
-95 90 0
96 -88 -85 -90 0
-96 88 0
-96 85 0
-96 90 0
97 -89 -86 -86 0
-97 89 0
-97 86 0
-97 86 0
98 -86 -86 -88 0
-98 86 0
-98 86 0
-98 88 0
99 -89 -86 -84 0
-99 89 0
-99 86 0
-99 84 0
100 -85 -84 -81 0
-100 85 0
-100 84 0
-100 81 0
101 -95 -92 -96 0
-101 95 0
-101 92 0
-101 96 0
102 -100 -100 -94 0
-102 100 0
-102 100 0
-102 94 0
103 -99 -100 -94 0
-103 99 0
-103 100 0
-103 94 0
104 -95 -95 -93 0
-104 95 0
-104 95 0
-104 93 0
105 -93 -91 -98 0
-105 93 0
-105 91 0
-105 98 0
106 -99 -99 -91 0
-106 99 0
-106 99 0
-106 91 0
107 -95 -95 -100 0
-107 95 0
-107 95 0
-107 100 0
108 -96 -92 -91 0
-108 96 0
-108 92 0
-108 91 0
109 -94 -94 -92 0
-109 94 0
-109 94 0
-109 92 0
110 -97 -91 -99 0
-110 97 0
-110 91 0
-110 99 0
111 -108 -101 -101 0
-111 108 0
-111 101 0
-111 101 0
112 -110 -108 -106 0
-112 110 0
-112 108 0
-112 106 0
113 -102 -105 -108 0
-113 102 0
-113 105 0
-113 108 0
114 -108 -110 -108 0
-114 108 0
-114 110 0
-114 108 0
115 -109 -108 -105 0
-115 109 0
-115 108 0
-115 105 0
116 -108 -105 -107 0
-116 108 0
-116 105 0
-116 107 0
117 -109 -109 -108 0
-117 109 0
-117 109 0
-117 108 0
118 -106 -101 -108 0
-118 106 0
-118 101 0
-118 108 0
119 -101 -110 -104 0
-119 101 0
-119 110 0
-119 104 0
120 -106 -110 -106 0
-120 106 0
-120 110 0
-120 106 0
121 -115 -118 -120 0
-121 115 0
-121 118 0
-121 120 0
122 -113 -117 -111 0
-122 113 0
-122 117 0
-122 111 0
123 -114 -116 -113 0
-123 114 0
-123 116 0
-123 113 0
124 -120 -120 -114 0
-124 120 0
-124 120 0
-124 114 0
125 -114 -114 -119 0
-125 114 0
-125 114 0
-125 119 0
126 -118 -117 -115 0
-126 118 0
-126 117 0
-126 115 0
127 -115 -114 -114 0
-127 115 0
-127 114 0
-127 114 0
128 -112 -111 -119 0
-128 112 0
-128 111 0
-128 119 0
129 -119 -118 -117 0
-129 119 0
-129 118 0
-129 117 0
130 -120 -115 -120 0
-130 120 0
-130 115 0
-130 120 0
131 -125 -126 -130 0
-131 125 0
-131 126 0
-131 130 0
132 -124 -127 -127 0
-132 124 0
-132 127 0
-132 127 0
133 -124 -130 -122 0
-133 124 0
-133 130 0
-133 122 0
134 -130 -126 -128 0
-134 130 0
-134 126 0
-134 128 0
135 -129 -122 -129 0
-135 129 0
-135 122 0
-135 129 0
136 -126 -127 -121 0
-136 126 0
-136 127 0
-136 121 0
137 -128 -126 -121 0
-137 128 0
-137 126 0
-137 121 0
138 -123 -129 -123 0
-138 123 0
-138 129 0
-138 123 0
139 -130 -129 -126 0
-139 130 0
-139 129 0
-139 126 0
140 -129 -128 -126 0
-140 129 0
-140 128 0
-140 126 0
141 -139 -139 -136 0
-141 139 0
-141 139 0
-141 136 0
142 -134 -134 -139 0
-142 134 0
-142 134 0
-142 139 0
143 -140 -140 -140 0
-143 140 0
-143 140 0
-143 140 0
144 -136 -136 -140 0
-144 136 0
-144 136 0
-144 140 0
145 -132 -135 -139 0
-145 132 0
-145 135 0
-145 139 0
146 -139 -136 -133 0
-146 139 0
-146 136 0
-146 133 0
147 -132 -140 -135 0
-147 132 0
-147 140 0
-147 135 0
148 -134 -135 -137 0
-148 134 0
-148 135 0
-148 137 0
149 -131 -136 -136 0
-149 131 0
-149 136 0
-149 136 0
150 -135 -138 -139 0
-150 135 0
-150 138 0
-150 139 0
151 -142 -141 -142 0
-151 142 0
-151 141 0
-151 142 0
152 -148 -141 -150 0
-152 148 0
-152 141 0
-152 150 0
153 -145 -145 -142 0
-153 145 0
-153 145 0
-153 142 0
154 -146 -148 -148 0
-154 146 0
-154 148 0
-154 148 0
155 -147 -146 -147 0
-155 147 0
-155 146 0
-155 147 0
156 -147 -141 -146 0
-156 147 0
-156 141 0
-156 146 0
157 -141 -148 -145 0
-157 141 0
-157 148 0
-157 145 0
158 -141 -146 -149 0
-158 141 0
-158 146 0
-158 149 0
159 -147 -148 -144 0
-159 147 0
-159 148 0
-159 144 0
160 -149 -147 -143 0
-160 149 0
-160 147 0
-160 143 0
161 -160 -159 -154 0
-161 160 0
-161 159 0
-161 154 0
162 -156 -159 -160 0
-162 156 0
-162 159 0
-162 160 0
163 -152 -156 -151 0
-163 152 0
-163 156 0
-163 151 0
164 -160 -157 -156 0
-164 160 0
-164 157 0
-164 156 0
165 -155 -160 -157 0
-165 155 0
-165 160 0
-165 157 0
166 -159 -154 -152 0
-166 159 0
-166 154 0
-166 152 0
167 -159 -153 -151 0
-167 159 0
-167 153 0
-167 151 0
168 -151 -153 -157 0
-168 151 0
-168 153 0
-168 157 0
169 -154 -151 -154 0
-169 154 0
-169 151 0
-169 154 0
170 -155 -160 -154 0
-170 155 0
-170 160 0
-170 154 0
171 -169 -164 -161 0
-171 169 0
-171 164 0
-171 161 0
172 -163 -168 -164 0
-172 163 0
-172 168 0
-172 164 0
173 -165 -163 -166 0
-173 165 0
-173 163 0
-173 166 0
174 -168 -169 -167 0
-174 168 0
-174 169 0
-174 167 0
175 -164 -166 -166 0
-175 164 0
-175 166 0
-175 166 0
176 -167 -168 -164 0
-176 167 0
-176 168 0
-176 164 0
177 -170 -166 -170 0
-177 170 0
-177 166 0
-177 170 0
178 -165 -165 -161 0
-178 165 0
-178 165 0
-178 161 0
179 -162 -170 -169 0
-179 162 0
-179 170 0
-179 169 0
180 -161 -170 -163 0
-180 161 0
-180 170 0
-180 163 0
181 -175 -178 -172 0
-181 175 0
-181 178 0
-181 172 0
182 -176 -180 -174 0
-182 176 0
-182 180 0
-182 174 0
183 -176 -177 -178 0
-183 176 0
-183 177 0
-183 178 0
184 -173 -172 -174 0
-184 173 0
-184 172 0
-184 174 0
185 -180 -175 -173 0
-185 180 0
-185 175 0
-185 173 0
186 -176 -174 -180 0
-186 176 0
-186 174 0
-186 180 0
187 -177 -171 -175 0
-187 177 0
-187 171 0
-187 175 0
188 -177 -177 -180 0
-188 177 0
-188 177 0
-188 180 0
189 -180 -171 -173 0
-189 180 0
-189 171 0
-189 173 0
190 -180 -179 -177 0
-190 180 0
-190 179 0
-190 177 0
191 -186 -181 -185 0
-191 186 0
-191 181 0
-191 185 0
192 -190 -181 -184 0
-192 190 0
-192 181 0
-192 184 0
193 -188 -183 -186 0
-193 188 0
-193 183 0
-193 186 0
194 -184 -187 -190 0
-194 184 0
-194 187 0
-194 190 0
195 -189 -190 -187 0
-195 189 0
-195 190 0
-195 187 0
196 -183 -188 -185 0
-196 183 0
-196 188 0
-196 185 0
197 -186 -186 -187 0
-197 186 0
-197 186 0
-197 187 0
198 -182 -184 -187 0
-198 182 0
-198 184 0
-198 187 0
199 -189 -190 -188 0
-199 189 0
-199 190 0
-199 188 0
200 -190 -188 -184 0
-200 190 0
-200 188 0
-200 184 0
201 -191 -191 -196 0
-201 191 0
-201 191 0
-201 196 0
202 -193 -195 -191 0
-202 193 0
-202 195 0
-202 191 0
203 -191 -195 -199 0
-203 191 0
-203 195 0
-203 199 0
204 -194 -196 -191 0
-204 194 0
-204 196 0
-204 191 0
205 -196 -195 -191 0
-205 196 0
-205 195 0
-205 191 0
206 -196 -193 -192 0
-206 196 0
-206 193 0
-206 192 0
207 -200 -199 -197 0
-207 200 0
-207 199 0
-207 197 0
208 -195 -194 -200 0
-208 195 0
-208 194 0
-208 200 0
209 -192 -197 -192 0
-209 192 0
-209 197 0
-209 192 0
210 -194 -199 -196 0
-210 194 0
-210 199 0
-210 196 0
211 -207 -203 -209 0
-211 207 0
-211 203 0
-211 209 0
212 -204 -202 -203 0
-212 204 0
-212 202 0
-212 203 0
213 -203 -205 -205 0
-213 203 0
-213 205 0
-213 205 0
214 -206 -204 -209 0
-214 206 0
-214 204 0
-214 209 0
215 -202 -208 -204 0
-215 202 0
-215 208 0
-215 204 0
216 -206 -210 -202 0
-216 206 0
-216 210 0
-216 202 0
217 -205 -209 -204 0
-217 205 0
-217 209 0
-217 204 0
218 -202 -204 -209 0
-218 202 0
-218 204 0
-218 209 0
219 -209 -204 -208 0
-219 209 0
-219 204 0
-219 208 0
220 -208 -202 -201 0
-220 208 0
-220 202 0
-220 201 0
221 -218 -220 -217 0
-221 218 0
-221 220 0
-221 217 0
222 -219 -216 -215 0
-222 219 0
-222 216 0
-222 215 0
223 -217 -220 -211 0
-223 217 0
-223 220 0
-223 211 0
224 -219 -214 -212 0
-224 219 0
-224 214 0
-224 212 0
225 -213 -217 -218 0
-225 213 0
-225 217 0
-225 218 0
226 -219 -211 -212 0
-226 219 0
-226 211 0
-226 212 0
227 -215 -215 -218 0
-227 215 0
-227 215 0
-227 218 0
228 -216 -214 -212 0
-228 216 0
-228 214 0
-228 212 0
229 -219 -217 -212 0
-229 219 0
-229 217 0
-229 212 0
230 -211 -213 -215 0
-230 211 0
-230 213 0
-230 215 0
231 -221 -229 -227 0
-231 221 0
-231 229 0
-231 227 0
232 -224 -227 -221 0
-232 224 0
-232 227 0
-232 221 0
233 -221 -223 -225 0
-233 221 0
-233 223 0
-233 225 0
234 -227 -229 -225 0
-234 227 0
-234 229 0
-234 225 0
235 -222 -223 -229 0
-235 222 0
-235 223 0
-235 229 0
236 -229 -223 -230 0
-236 229 0
-236 223 0
-236 230 0
237 -221 -229 -224 0
-237 221 0
-237 229 0
-237 224 0
238 -222 -226 -230 0
-238 222 0
-238 226 0
-238 230 0
239 -221 -227 -229 0
-239 221 0
-239 227 0
-239 229 0
240 -223 -228 -226 0
-240 223 0
-240 228 0
-240 226 0
241 -233 -240 -234 0
-241 233 0
-241 240 0
-241 234 0
242 -232 -234 -239 0
-242 232 0
-242 234 0
-242 239 0
243 -239 -238 -236 0
-243 239 0
-243 238 0
-243 236 0
244 -233 -236 -234 0
-244 233 0
-244 236 0
-244 234 0
245 -236 -239 -233 0
-245 236 0
-245 239 0
-245 233 0
246 -235 -232 -237 0
-246 235 0
-246 232 0
-246 237 0
247 -235 -236 -238 0
-247 235 0
-247 236 0
-247 238 0
248 -234 -239 -240 0
-248 234 0
-248 239 0
-248 240 0
249 -239 -240 -236 0
-249 239 0
-249 240 0
-249 236 0
250 -235 -235 -240 0
-250 235 0
-250 235 0
-250 240 0
251 -248 -245 -243 0
-251 248 0
-251 245 0
-251 243 0
252 -241 -245 -246 0
-252 241 0
-252 245 0
-252 246 0
253 -245 -242 -241 0
-253 245 0
-253 242 0
-253 241 0
254 -244 -248 -244 0
-254 244 0
-254 248 0
-254 244 0
255 -244 -249 -242 0
-255 244 0
-255 249 0
-255 242 0
256 -246 -245 -243 0
-256 246 0
-256 245 0
-256 243 0
257 -241 -246 -244 0
-257 241 0
-257 246 0
-257 244 0
258 -249 -249 -244 0
-258 249 0
-258 249 0
-258 244 0
259 -245 -242 -250 0
-259 245 0
-259 242 0
-259 250 0
260 -250 -246 -244 0
-260 250 0
-260 246 0
-260 244 0
261 -260 -251 -260 0
-261 260 0
-261 251 0
-261 260 0
262 -252 -257 -259 0
-262 252 0
-262 257 0
-262 259 0
263 -258 -254 -251 0
-263 258 0
-263 254 0
-263 251 0
264 -258 -251 -259 0
-264 258 0
-264 251 0
-264 259 0
265 -260 -256 -256 0
-265 260 0
-265 256 0
-265 256 0
266 -256 -258 -253 0
-266 256 0
-266 258 0
-266 253 0
267 -257 -258 -258 0
-267 257 0
-267 258 0
-267 258 0
268 -258 -254 -260 0
-268 258 0
-268 254 0
-268 260 0
269 -253 -252 -252 0
-269 253 0
-269 252 0
-269 252 0
270 -251 -255 -255 0
-270 251 0
-270 255 0
-270 255 0
271 -263 -268 -266 0
-271 263 0
-271 268 0
-271 266 0
272 -264 -268 -264 0
-272 264 0
-272 268 0
-272 264 0
273 -268 -265 -264 0
-273 268 0
-273 265 0
-273 264 0
274 -268 -267 -263 0
-274 268 0
-274 267 0
-274 263 0
275 -262 -270 -262 0
-275 262 0
-275 270 0
-275 262 0
276 -262 -265 -268 0
-276 262 0
-276 265 0
-276 268 0
277 -266 -268 -268 0
-277 266 0
-277 268 0
-277 268 0
278 -270 -263 -262 0
-278 270 0
-278 263 0
-278 262 0
279 -262 -262 -266 0
-279 262 0
-279 262 0
-279 266 0
280 -264 -266 -266 0
-280 264 0
-280 266 0
-280 266 0
281 -276 -277 -277 0
-281 276 0
-281 277 0
-281 277 0
282 -277 -272 -276 0
-282 277 0
-282 272 0
-282 276 0
283 -271 -279 -275 0
-283 271 0
-283 279 0
-283 275 0
284 -275 -279 -279 0
-284 275 0
-284 279 0
-284 279 0
285 -280 -278 -278 0
-285 280 0
-285 278 0
-285 278 0
286 -274 -275 -272 0
-286 274 0
-286 275 0
-286 272 0
287 -274 -274 -279 0
-287 274 0
-287 274 0
-287 279 0
288 -273 -280 -273 0
-288 273 0
-288 280 0
-288 273 0
289 -279 -275 -279 0
-289 279 0
-289 275 0
-289 279 0
290 -273 -280 -277 0
-290 273 0
-290 280 0
-290 277 0
291 -288 -282 -283 0
-291 288 0
-291 282 0
-291 283 0
292 -287 -288 -281 0
-292 287 0
-292 288 0
-292 281 0
293 -283 -290 -281 0
-293 283 0
-293 290 0
-293 281 0
294 -288 -286 -285 0
-294 288 0
-294 286 0
-294 285 0
295 -281 -285 -288 0
-295 281 0
-295 285 0
-295 288 0
296 -288 -283 -290 0
-296 288 0
-296 283 0
-296 290 0
297 -283 -284 -282 0
-297 283 0
-297 284 0
-297 282 0
298 -282 -290 -289 0
-298 282 0
-298 290 0
-298 289 0
299 -283 -289 -290 0
-299 283 0
-299 289 0
-299 290 0
300 -285 -286 -282 0
-300 285 0
-300 286 0
-300 282 0
301 -297 -293 -298 0
-301 297 0
-301 293 0
-301 298 0
302 -300 -295 -292 0
-302 300 0
-302 295 0
-302 292 0
303 -295 -294 -294 0
-303 295 0
-303 294 0
-303 294 0
304 -297 -292 -299 0
-304 297 0
-304 292 0
-304 299 0
305 -294 -293 -300 0
-305 294 0
-305 293 0
-305 300 0
306 -292 -300 -300 0
-306 292 0
-306 300 0
-306 300 0
307 -293 -298 -292 0
-307 293 0
-307 298 0
-307 292 0
308 -298 -300 -295 0
-308 298 0
-308 300 0
-308 295 0
309 -295 -296 -295 0
-309 295 0
-309 296 0
-309 295 0
310 -299 -297 -293 0
-310 299 0
-310 297 0
-310 293 0
311 -305 -309 -309 0
-311 305 0
-311 309 0
-311 309 0
312 -309 -301 -306 0
-312 309 0
-312 301 0
-312 306 0
313 -301 -303 -302 0
-313 301 0
-313 303 0
-313 302 0
314 -309 -305 -306 0
-314 309 0
-314 305 0
-314 306 0
315 -302 -309 -304 0
-315 302 0
-315 309 0
-315 304 0
316 -304 -301 -304 0
-316 304 0
-316 301 0
-316 304 0
317 -304 -302 -301 0
-317 304 0
-317 302 0
-317 301 0
318 -306 -309 -306 0
-318 306 0
-318 309 0
-318 306 0
319 -303 -301 -309 0
-319 303 0
-319 301 0
-319 309 0
320 -301 -304 -303 0
-320 301 0
-320 304 0
-320 303 0
321 -312 -317 -319 0
-321 312 0
-321 317 0
-321 319 0
322 -317 -317 -317 0
-322 317 0
-322 317 0
-322 317 0
323 -313 -318 -319 0
-323 313 0
-323 318 0
-323 319 0
324 -318 -311 -319 0
-324 318 0
-324 311 0
-324 319 0
325 -317 -311 -311 0
-325 317 0
-325 311 0
-325 311 0
326 -315 -313 -313 0
-326 315 0
-326 313 0
-326 313 0
327 -314 -316 -312 0
-327 314 0
-327 316 0
-327 312 0
328 -312 -313 -311 0
-328 312 0
-328 313 0
-328 311 0
329 -313 -316 -311 0
-329 313 0
-329 316 0
-329 311 0
330 -312 -315 -315 0
-330 312 0
-330 315 0
-330 315 0
331 -321 -324 -328 0
-331 321 0
-331 324 0
-331 328 0
332 -324 -326 -322 0
-332 324 0
-332 326 0
-332 322 0
333 -323 -323 -325 0
-333 323 0
-333 323 0
-333 325 0
334 -330 -327 -327 0
-334 330 0
-334 327 0
-334 327 0
335 -324 -326 -324 0
-335 324 0
-335 326 0
-335 324 0
336 -326 -326 -329 0
-336 326 0
-336 326 0
-336 329 0
337 -329 -327 -330 0
-337 329 0
-337 327 0
-337 330 0
338 -322 -321 -326 0
-338 322 0
-338 321 0
-338 326 0
339 -329 -330 -326 0
-339 329 0
-339 330 0
-339 326 0
340 -330 -327 -326 0
-340 330 0
-340 327 0
-340 326 0
341 -335 -334 -331 0
-341 335 0
-341 334 0
-341 331 0
342 -336 -340 -332 0
-342 336 0
-342 340 0
-342 332 0
343 -340 -332 -340 0
-343 340 0
-343 332 0
-343 340 0
344 -332 -331 -339 0
-344 332 0
-344 331 0
-344 339 0
345 -334 -331 -331 0
-345 334 0
-345 331 0
-345 331 0
346 -334 -337 -331 0
-346 334 0
-346 337 0
-346 331 0
347 -337 -331 -340 0
-347 337 0
-347 331 0
-347 340 0
348 -333 -331 -338 0
-348 333 0
-348 331 0
-348 338 0
349 -335 -340 -333 0
-349 335 0
-349 340 0
-349 333 0
350 -336 -338 -334 0
-350 336 0
-350 338 0
-350 334 0
351 -345 -343 -341 0
-351 345 0
-351 343 0
-351 341 0
352 -343 -342 -346 0
-352 343 0
-352 342 0
-352 346 0
353 -349 -344 -341 0
-353 349 0
-353 344 0
-353 341 0
354 -341 -342 -345 0
-354 341 0
-354 342 0
-354 345 0
355 -350 -345 -348 0
-355 350 0
-355 345 0
-355 348 0
356 -343 -348 -349 0
-356 343 0
-356 348 0
-356 349 0
357 -344 -350 -344 0
-357 344 0
-357 350 0
-357 344 0
358 -341 -342 -348 0
-358 341 0
-358 342 0
-358 348 0
359 -348 -341 -349 0
-359 348 0
-359 341 0
-359 349 0
360 -347 -348 -344 0
-360 347 0
-360 348 0
-360 344 0
361 -358 -359 -351 0
-361 358 0
-361 359 0
-361 351 0
362 -359 -354 -355 0
-362 359 0
-362 354 0
-362 355 0
363 -355 -359 -352 0
-363 355 0
-363 359 0
-363 352 0
364 -352 -354 -360 0
-364 352 0
-364 354 0
-364 360 0
365 -353 -355 -360 0
-365 353 0
-365 355 0
-365 360 0
366 -356 -360 -356 0
-366 356 0
-366 360 0
-366 356 0
367 -353 -357 -356 0
-367 353 0
-367 357 0
-367 356 0
368 -356 -357 -351 0
-368 356 0
-368 357 0
-368 351 0
369 -360 -352 -357 0
-369 360 0
-369 352 0
-369 357 0
370 -355 -357 -354 0
-370 355 0
-370 357 0
-370 354 0
371 -368 -361 -368 0
-371 368 0
-371 361 0
-371 368 0
372 -368 -364 -364 0
-372 368 0
-372 364 0
-372 364 0
373 -365 -363 -364 0
-373 365 0
-373 363 0
-373 364 0
374 -361 -369 -364 0
-374 361 0
-374 369 0
-374 364 0
375 -366 -361 -366 0
-375 366 0
-375 361 0
-375 366 0
376 -364 -361 -362 0
-376 364 0
-376 361 0
-376 362 0
377 -364 -370 -364 0
-377 364 0
-377 370 0
-377 364 0
378 -363 -361 -361 0
-378 363 0
-378 361 0
-378 361 0
379 -367 -364 -364 0
-379 367 0
-379 364 0
-379 364 0
380 -369 -362 -367 0
-380 369 0
-380 362 0
-380 367 0
381 -380 -371 -375 0
-381 380 0
-381 371 0
-381 375 0
382 -377 -374 -380 0
-382 377 0
-382 374 0
-382 380 0
383 -375 -377 -375 0
-383 375 0
-383 377 0
-383 375 0
384 -378 -380 -374 0
-384 378 0
-384 380 0
-384 374 0
385 -372 -378 -373 0
-385 372 0
-385 378 0
-385 373 0
386 -378 -372 -380 0
-386 378 0
-386 372 0
-386 380 0
387 -376 -376 -376 0
-387 376 0
-387 376 0
-387 376 0
388 -373 -379 -376 0
-388 373 0
-388 379 0
-388 376 0
389 -373 -374 -375 0
-389 373 0
-389 374 0
-389 375 0
390 -373 -372 -372 0
-390 373 0
-390 372 0
-390 372 0
391 -387 -383 -384 0
-391 387 0
-391 383 0
-391 384 0
392 -389 -382 -381 0
-392 389 0
-392 382 0
-392 381 0
393 -382 -382 -381 0
-393 382 0
-393 382 0
-393 381 0
394 -386 -385 -384 0
-394 386 0
-394 385 0
-394 384 0
395 -387 -388 -381 0
-395 387 0
-395 388 0
-395 381 0
396 -386 -389 -385 0
-396 386 0
-396 389 0
-396 385 0
397 -382 -386 -390 0
-397 382 0
-397 386 0
-397 390 0
398 -389 -389 -383 0
-398 389 0
-398 389 0
-398 383 0
399 -387 -382 -383 0
-399 387 0
-399 382 0
-399 383 0
400 -384 -384 -389 0
-400 384 0
-400 384 0
-400 389 0
401 -394 -399 -397 0
-401 394 0
-401 399 0
-401 397 0
402 -394 -391 -393 0
-402 394 0
-402 391 0
-402 393 0
403 -395 -394 -392 0
-403 395 0
-403 394 0
-403 392 0
404 -398 -397 -399 0
-404 398 0
-404 397 0
-404 399 0
405 -393 -398 -400 0
-405 393 0
-405 398 0
-405 400 0
406 -399 -397 -394 0
-406 399 0
-406 397 0
-406 394 0
407 -399 -396 -393 0
-407 399 0
-407 396 0
-407 393 0
408 -399 -398 -398 0
-408 399 0
-408 398 0
-408 398 0
409 -393 -391 -391 0
-409 393 0
-409 391 0
-409 391 0
410 -397 -399 -395 0
-410 397 0
-410 399 0
-410 395 0
411 -406 -404 -408 0
-411 406 0
-411 404 0
-411 408 0
412 -406 -401 -409 0
-412 406 0
-412 401 0
-412 409 0
413 -406 -403 -406 0
-413 406 0
-413 403 0
-413 406 0
414 -403 -409 -410 0
-414 403 0
-414 409 0
-414 410 0
415 -410 -406 -408 0
-415 410 0
-415 406 0
-415 408 0
416 -408 -408 -402 0
-416 408 0
-416 408 0
-416 402 0
417 -410 -401 -402 0
-417 410 0
-417 401 0
-417 402 0
418 -405 -403 -407 0
-418 405 0
-418 403 0
-418 407 0
419 -406 -404 -405 0
-419 406 0
-419 404 0
-419 405 0
420 -407 -410 -410 0
-420 407 0
-420 410 0
-420 410 0
421 -412 -411 -416 0
-421 412 0
-421 411 0
-421 416 0
422 -415 -414 -418 0
-422 415 0
-422 414 0
-422 418 0
423 -417 -419 -418 0
-423 417 0
-423 419 0
-423 418 0
424 -416 -411 -414 0
-424 416 0
-424 411 0
-424 414 0
425 -413 -414 -420 0
-425 413 0
-425 414 0
-425 420 0
426 -419 -416 -412 0
-426 419 0
-426 416 0
-426 412 0
427 -415 -411 -417 0
-427 415 0
-427 411 0
-427 417 0
428 -412 -414 -418 0
-428 412 0
-428 414 0
-428 418 0
429 -417 -417 -416 0
-429 417 0
-429 417 0
-429 416 0
430 -414 -420 -420 0
-430 414 0
-430 420 0
-430 420 0
431 -429 -424 -424 0
-431 429 0
-431 424 0
-431 424 0
432 -423 -429 -422 0
-432 423 0
-432 429 0
-432 422 0
433 -428 -429 -427 0
-433 428 0
-433 429 0
-433 427 0
434 -429 -430 -421 0
-434 429 0
-434 430 0
-434 421 0
435 -426 -421 -424 0
-435 426 0
-435 421 0
-435 424 0
436 -430 -422 -422 0
-436 430 0
-436 422 0
-436 422 0
437 -421 -422 -428 0
-437 421 0
-437 422 0
-437 428 0
438 -429 -427 -428 0
-438 429 0
-438 427 0
-438 428 0
439 -426 -421 -425 0
-439 426 0
-439 421 0
-439 425 0
440 -427 -430 -423 0
-440 427 0
-440 430 0
-440 423 0
441 -437 -437 -434 0
-441 437 0
-441 437 0
-441 434 0
442 -436 -435 -434 0
-442 436 0
-442 435 0
-442 434 0
443 -437 -440 -437 0
-443 437 0
-443 440 0
-443 437 0
444 -439 -438 -434 0
-444 439 0
-444 438 0
-444 434 0
445 -440 -438 -434 0
-445 440 0
-445 438 0
-445 434 0
446 -433 -439 -440 0
-446 433 0
-446 439 0
-446 440 0
447 -440 -435 -437 0
-447 440 0
-447 435 0
-447 437 0
448 -433 -439 -437 0
-448 433 0
-448 439 0
-448 437 0
449 -439 -434 -440 0
-449 439 0
-449 434 0
-449 440 0
450 -431 -432 -436 0
-450 431 0
-450 432 0
-450 436 0
451 -447 -443 -448 0
-451 447 0
-451 443 0
-451 448 0
452 -447 -443 -449 0
-452 447 0
-452 443 0
-452 449 0
453 -442 -444 -448 0
-453 442 0
-453 444 0
-453 448 0
454 -449 -443 -447 0
-454 449 0
-454 443 0
-454 447 0
455 -441 -449 -446 0
-455 441 0
-455 449 0
-455 446 0
456 -445 -450 -445 0
-456 445 0
-456 450 0
-456 445 0
457 -442 -444 -442 0
-457 442 0
-457 444 0
-457 442 0
458 -444 -450 -441 0
-458 444 0
-458 450 0
-458 441 0
459 -450 -449 -445 0
-459 450 0
-459 449 0
-459 445 0
460 -444 -446 -449 0
-460 444 0
-460 446 0
-460 449 0
461 -452 -459 -451 0
-461 452 0
-461 459 0
-461 451 0
462 -459 -458 -454 0
-462 459 0
-462 458 0
-462 454 0
463 -457 -455 -458 0
-463 457 0
-463 455 0
-463 458 0
464 -459 -460 -455 0
-464 459 0
-464 460 0
-464 455 0
465 -452 -457 -451 0
-465 452 0
-465 457 0
-465 451 0
466 -452 -459 -459 0
-466 452 0
-466 459 0
-466 459 0
467 -455 -452 -451 0
-467 455 0
-467 452 0
-467 451 0
468 -459 -459 -453 0
-468 459 0
-468 459 0
-468 453 0
469 -453 -452 -460 0
-469 453 0
-469 452 0
-469 460 0
470 -460 -455 -455 0
-470 460 0
-470 455 0
-470 455 0
471 -468 -464 -466 0
-471 468 0
-471 464 0
-471 466 0
472 -464 -464 -463 0
-472 464 0
-472 464 0
-472 463 0
473 -465 -470 -468 0
-473 465 0
-473 470 0
-473 468 0
474 -468 -465 -467 0
-474 468 0
-474 465 0
-474 467 0
475 -461 -466 -468 0
-475 461 0
-475 466 0
-475 468 0
476 -463 -467 -469 0
-476 463 0
-476 467 0
-476 469 0
477 -467 -463 -466 0
-477 467 0
-477 463 0
-477 466 0
478 -464 -467 -468 0
-478 464 0
-478 467 0
-478 468 0
479 -466 -467 -467 0
-479 466 0
-479 467 0
-479 467 0
480 -462 -463 -466 0
-480 462 0
-480 463 0
-480 466 0
481 -473 -477 -471 0
-481 473 0
-481 477 0
-481 471 0
482 -474 -478 -478 0
-482 474 0
-482 478 0
-482 478 0
483 -480 -476 -479 0
-483 480 0
-483 476 0
-483 479 0
484 -478 -474 -473 0
-484 478 0
-484 474 0
-484 473 0
485 -472 -480 -476 0
-485 472 0
-485 480 0
-485 476 0
486 -473 -477 -472 0
-486 473 0
-486 477 0
-486 472 0
487 -472 -480 -475 0
-487 472 0
-487 480 0
-487 475 0
488 -477 -478 -476 0
-488 477 0
-488 478 0
-488 476 0
489 -480 -479 -480 0
-489 480 0
-489 479 0
-489 480 0
490 -475 -472 -479 0
-490 475 0
-490 472 0
-490 479 0
491 -481 -487 -488 0
-491 481 0
-491 487 0
-491 488 0
492 -482 -486 -489 0
-492 482 0
-492 486 0
-492 489 0
493 -482 -487 -482 0
-493 482 0
-493 487 0
-493 482 0
494 -482 -488 -488 0
-494 482 0
-494 488 0
-494 488 0
495 -485 -486 -490 0
-495 485 0
-495 486 0
-495 490 0
496 -489 -489 -488 0
-496 489 0
-496 489 0
-496 488 0
497 -489 -490 -482 0
-497 489 0
-497 490 0
-497 482 0
498 -490 -490 -490 0
-498 490 0
-498 490 0
-498 490 0
499 -486 -486 -485 0
-499 486 0
-499 486 0
-499 485 0
500 -487 -488 -481 0
-500 487 0
-500 488 0
-500 481 0
501 -497 -492 -500 0
-501 497 0
-501 492 0
-501 500 0
502 -492 -492 -494 0
-502 492 0
-502 492 0
-502 494 0
503 -500 -492 -491 0
-503 500 0
-503 492 0
-503 491 0
504 -493 -497 -499 0
-504 493 0
-504 497 0
-504 499 0
505 -498 -492 -493 0
-505 498 0
-505 492 0
-505 493 0
506 -499 -493 -497 0
-506 499 0
-506 493 0
-506 497 0
507 -495 -496 -498 0
-507 495 0
-507 496 0
-507 498 0
508 -499 -497 -492 0
-508 499 0
-508 497 0
-508 492 0
509 -500 -497 -495 0
-509 500 0
-509 497 0
-509 495 0
510 -494 -495 -497 0
-510 494 0
-510 495 0
-510 497 0
511 -507 -509 -508 0
-511 507 0
-511 509 0
-511 508 0
512 -508 -509 -509 0
-512 508 0
-512 509 0
-512 509 0
513 -501 -507 -507 0
-513 501 0
-513 507 0
-513 507 0
514 -510 -502 -505 0
-514 510 0
-514 502 0
-514 505 0
515 -505 -504 -506 0
-515 505 0
-515 504 0
-515 506 0
516 -502 -508 -502 0
-516 502 0
-516 508 0
-516 502 0
517 -501 -507 -510 0
-517 501 0
-517 507 0
-517 510 0
518 -504 -510 -509 0
-518 504 0
-518 510 0
-518 509 0
519 -504 -510 -507 0
-519 504 0
-519 510 0
-519 507 0
520 -510 -509 -504 0
-520 510 0
-520 509 0
-520 504 0
521 -515 -511 -520 0
-521 515 0
-521 511 0
-521 520 0
522 -518 -514 -518 0
-522 518 0
-522 514 0
-522 518 0
523 -518 -514 -519 0
-523 518 0
-523 514 0
-523 519 0
524 -512 -520 -516 0
-524 512 0
-524 520 0
-524 516 0
525 -515 -519 -518 0
-525 515 0
-525 519 0
-525 518 0
526 -519 -519 -519 0
-526 519 0
-526 519 0
-526 519 0
527 -520 -519 -515 0
-527 520 0
-527 519 0
-527 515 0
528 -512 -511 -517 0
-528 512 0
-528 511 0
-528 517 0
529 -512 -511 -512 0
-529 512 0
-529 511 0
-529 512 0
530 -517 -519 -512 0
-530 517 0
-530 519 0
-530 512 0
531 -522 -523 -524 0
-531 522 0
-531 523 0
-531 524 0
532 -526 -521 -530 0
-532 526 0
-532 521 0
-532 530 0
533 -523 -525 -526 0
-533 523 0
-533 525 0
-533 526 0
534 -528 -527 -524 0
-534 528 0
-534 527 0
-534 524 0
535 -526 -525 -524 0
-535 526 0
-535 525 0
-535 524 0
536 -521 -527 -528 0
-536 521 0
-536 527 0
-536 528 0
537 -522 -529 -523 0
-537 522 0
-537 529 0
-537 523 0
538 -527 -524 -530 0
-538 527 0
-538 524 0
-538 530 0
539 -530 -526 -529 0
-539 530 0
-539 526 0
-539 529 0
540 -521 -526 -526 0
-540 521 0
-540 526 0
-540 526 0
541 -532 -539 -534 0
-541 532 0
-541 539 0
-541 534 0
542 -535 -539 -538 0
-542 535 0
-542 539 0
-542 538 0
543 -538 -540 -538 0
-543 538 0
-543 540 0
-543 538 0
544 -539 -533 -539 0
-544 539 0
-544 533 0
-544 539 0
545 -534 -538 -536 0
-545 534 0
-545 538 0
-545 536 0
546 -538 -537 -540 0
-546 538 0
-546 537 0
-546 540 0
547 -540 -535 -531 0
-547 540 0
-547 535 0
-547 531 0
548 -534 -538 -534 0
-548 534 0
-548 538 0
-548 534 0
549 -539 -536 -536 0
-549 539 0
-549 536 0
-549 536 0
550 -539 -540 -533 0
-550 539 0
-550 540 0
-550 533 0
551 -547 -541 -541 0
-551 547 0
-551 541 0
-551 541 0
552 -550 -543 -550 0
-552 550 0
-552 543 0
-552 550 0
553 -549 -550 -549 0
-553 549 0
-553 550 0
-553 549 0
554 -550 -550 -542 0
-554 550 0
-554 550 0
-554 542 0
555 -545 -541 -549 0
-555 545 0
-555 541 0
-555 549 0
556 -542 -549 -544 0
-556 542 0
-556 549 0
-556 544 0
557 -546 -550 -541 0
-557 546 0
-557 550 0
-557 541 0
558 -543 -544 -550 0
-558 543 0
-558 544 0
-558 550 0
559 -550 -549 -548 0
-559 550 0
-559 549 0
-559 548 0
560 -549 -548 -541 0
-560 549 0
-560 548 0
-560 541 0
561 -555 -554 -560 0
-561 555 0
-561 554 0
-561 560 0
562 -554 -557 -551 0
-562 554 0
-562 557 0
-562 551 0
563 -556 -551 -552 0
-563 556 0
-563 551 0
-563 552 0
564 -560 -558 -558 0
-564 560 0
-564 558 0
-564 558 0
565 -551 -556 -551 0
-565 551 0
-565 556 0
-565 551 0
566 -560 -552 -553 0
-566 560 0
-566 552 0
-566 553 0
567 -556 -558 -554 0
-567 556 0
-567 558 0
-567 554 0
568 -556 -553 -555 0
-568 556 0
-568 553 0
-568 555 0
569 -551 -556 -552 0
-569 551 0
-569 556 0
-569 552 0
570 -552 -557 -557 0
-570 552 0
-570 557 0
-570 557 0
571 -570 -567 -564 0
-571 570 0
-571 567 0
-571 564 0
572 -566 -567 -569 0
-572 566 0
-572 567 0
-572 569 0
573 -562 -561 -568 0
-573 562 0
-573 561 0
-573 568 0
574 -569 -562 -569 0
-574 569 0
-574 562 0
-574 569 0
575 -563 -567 -564 0
-575 563 0
-575 567 0
-575 564 0
576 -567 -565 -570 0
-576 567 0
-576 565 0
-576 570 0
577 -570 -564 -568 0
-577 570 0
-577 564 0
-577 568 0
578 -561 -569 -563 0
-578 561 0
-578 569 0
-578 563 0
579 -562 -570 -570 0
-579 562 0
-579 570 0
-579 570 0
580 -566 -565 -568 0
-580 566 0
-580 565 0
-580 568 0
581 -572 -576 -578 0
-581 572 0
-581 576 0
-581 578 0
582 -572 -580 -573 0
-582 572 0
-582 580 0
-582 573 0
583 -571 -572 -577 0
-583 571 0
-583 572 0
-583 577 0
584 -571 -578 -572 0
-584 571 0
-584 578 0
-584 572 0
585 -578 -578 -571 0
-585 578 0
-585 578 0
-585 571 0
586 -578 -572 -574 0
-586 578 0
-586 572 0
-586 574 0
587 -575 -577 -574 0
-587 575 0
-587 577 0
-587 574 0
588 -579 -575 -573 0
-588 579 0
-588 575 0
-588 573 0
589 -579 -576 -576 0
-589 579 0
-589 576 0
-589 576 0
590 -571 -577 -572 0
-590 571 0
-590 577 0
-590 572 0
591 -583 -583 -582 0
-591 583 0
-591 583 0
-591 582 0
592 -585 -585 -584 0
-592 585 0
-592 585 0
-592 584 0
593 -585 -589 -590 0
-593 585 0
-593 589 0
-593 590 0
594 -585 -581 -582 0
-594 585 0
-594 581 0
-594 582 0
595 -586 -587 -588 0
-595 586 0
-595 587 0
-595 588 0
596 -587 -583 -587 0
-596 587 0
-596 583 0
-596 587 0
597 -590 -582 -588 0
-597 590 0
-597 582 0
-597 588 0
598 -582 -586 -582 0
-598 582 0
-598 586 0
-598 582 0
599 -585 -584 -583 0
-599 585 0
-599 584 0
-599 583 0
600 -583 -585 -585 0
-600 583 0
-600 585 0
-600 585 0
601 -597 -592 -595 0
-601 597 0
-601 592 0
-601 595 0
602 -595 -598 -591 0
-602 595 0
-602 598 0
-602 591 0
603 -595 -594 -592 0
-603 595 0
-603 594 0
-603 592 0
604 -600 -599 -593 0
-604 600 0
-604 599 0
-604 593 0
605 -594 -591 -591 0
-605 594 0
-605 591 0
-605 591 0
606 -594 -599 -591 0
-606 594 0
-606 599 0
-606 591 0
607 -591 -593 -600 0
-607 591 0
-607 593 0
-607 600 0
608 -595 -597 -592 0
-608 595 0
-608 597 0
-608 592 0
609 -593 -594 -595 0
-609 593 0
-609 594 0
-609 595 0
610 -597 -596 -597 0
-610 597 0
-610 596 0
-610 597 0
611 -606 -606 -605 0
-611 606 0
-611 606 0
-611 605 0
612 -602 -602 -606 0
-612 602 0
-612 602 0
-612 606 0
613 -607 -606 -603 0
-613 607 0
-613 606 0
-613 603 0
614 -601 -602 -607 0
-614 601 0
-614 602 0
-614 607 0
615 -606 -602 -610 0
-615 606 0
-615 602 0
-615 610 0
616 -605 -606 -609 0
-616 605 0
-616 606 0
-616 609 0
617 -610 -605 -605 0
-617 610 0
-617 605 0
-617 605 0
618 -601 -601 -609 0
-618 601 0
-618 601 0
-618 609 0
619 -609 -601 -606 0
-619 609 0
-619 601 0
-619 606 0
620 -603 -604 -607 0
-620 603 0
-620 604 0
-620 607 0
621 -614 -619 -614 0
-621 614 0
-621 619 0
-621 614 0
622 -614 -620 -612 0
-622 614 0
-622 620 0
-622 612 0
623 -619 -618 -614 0
-623 619 0
-623 618 0
-623 614 0
624 -611 -618 -616 0
-624 611 0
-624 618 0
-624 616 0
625 -620 -620 -619 0
-625 620 0
-625 620 0
-625 619 0
626 -612 -617 -619 0
-626 612 0
-626 617 0
-626 619 0
627 -618 -617 -617 0
-627 618 0
-627 617 0
-627 617 0
628 -619 -618 -612 0
-628 619 0
-628 618 0
-628 612 0
629 -615 -616 -620 0
-629 615 0
-629 616 0
-629 620 0
630 -616 -613 -619 0
-630 616 0
-630 613 0
-630 619 0
631 -627 -626 -626 0
-631 627 0
-631 626 0
-631 626 0
632 -628 -626 -629 0
-632 628 0
-632 626 0
-632 629 0
633 -624 -623 -627 0
-633 624 0
-633 623 0
-633 627 0
634 -626 -629 -622 0
-634 626 0
-634 629 0
-634 622 0
635 -625 -622 -625 0
-635 625 0
-635 622 0
-635 625 0
636 -626 -623 -628 0
-636 626 0
-636 623 0
-636 628 0
637 -628 -621 -628 0
-637 628 0
-637 621 0
-637 628 0
638 -627 -623 -624 0
-638 627 0
-638 623 0
-638 624 0
639 -623 -628 -625 0
-639 623 0
-639 628 0
-639 625 0
640 -628 -624 -622 0
-640 628 0
-640 624 0
-640 622 0
641 -639 -639 -635 0
-641 639 0
-641 639 0
-641 635 0
642 -636 -637 -639 0
-642 636 0
-642 637 0
-642 639 0
643 -632 -638 -639 0
-643 632 0
-643 638 0
-643 639 0
644 -633 -631 -631 0
-644 633 0
-644 631 0
-644 631 0
645 -640 -633 -635 0
-645 640 0
-645 633 0
-645 635 0
646 -637 -640 -633 0
-646 637 0
-646 640 0
-646 633 0
647 -634 -636 -634 0
-647 634 0
-647 636 0
-647 634 0
648 -633 -632 -640 0
-648 633 0
-648 632 0
-648 640 0
649 -632 -635 -634 0
-649 632 0
-649 635 0
-649 634 0
650 -636 -633 -639 0
-650 636 0
-650 633 0
-650 639 0
651 -648 -650 -650 0
-651 648 0
-651 650 0
-651 650 0
652 -649 -641 -650 0
-652 649 0
-652 641 0
-652 650 0
653 -649 -641 -648 0
-653 649 0
-653 641 0
-653 648 0
654 -645 -644 -650 0
-654 645 0
-654 644 0
-654 650 0
655 -644 -649 -650 0
-655 644 0
-655 649 0
-655 650 0
656 -647 -646 -644 0
-656 647 0
-656 646 0
-656 644 0
657 -643 -644 -645 0
-657 643 0
-657 644 0
-657 645 0
658 -643 -643 -642 0
-658 643 0
-658 643 0
-658 642 0
659 -646 -644 -647 0
-659 646 0
-659 644 0
-659 647 0
660 -650 -644 -644 0
-660 650 0
-660 644 0
-660 644 0
661 -658 -652 -652 0
-661 658 0
-661 652 0
-661 652 0
662 -659 -659 -653 0
-662 659 0
-662 659 0
-662 653 0
663 -657 -652 -659 0
-663 657 0
-663 652 0
-663 659 0
664 -651 -654 -652 0
-664 651 0
-664 654 0
-664 652 0
665 -651 -653 -660 0
-665 651 0
-665 653 0
-665 660 0
666 -652 -660 -653 0
-666 652 0
-666 660 0
-666 653 0
667 -655 -655 -652 0
-667 655 0
-667 655 0
-667 652 0
668 -655 -658 -651 0
-668 655 0
-668 658 0
-668 651 0
669 -658 -658 -657 0
-669 658 0
-669 658 0
-669 657 0
670 -652 -654 -660 0
-670 652 0
-670 654 0
-670 660 0
671 -662 -661 -669 0
-671 662 0
-671 661 0
-671 669 0
672 -668 -663 -670 0
-672 668 0
-672 663 0
-672 670 0
673 -665 -670 -669 0
-673 665 0
-673 670 0
-673 669 0
674 -667 -661 -669 0
-674 667 0
-674 661 0
-674 669 0
675 -668 -665 -664 0
-675 668 0
-675 665 0
-675 664 0
676 -665 -661 -661 0
-676 665 0
-676 661 0
-676 661 0
677 -662 -670 -664 0
-677 662 0
-677 670 0
-677 664 0
678 -662 -662 -663 0
-678 662 0
-678 662 0
-678 663 0
679 -670 -668 -664 0
-679 670 0
-679 668 0
-679 664 0
680 -665 -669 -663 0
-680 665 0
-680 669 0
-680 663 0
681 -674 -675 -676 0
-681 674 0
-681 675 0
-681 676 0
682 -679 -671 -677 0
-682 679 0
-682 671 0
-682 677 0
683 -673 -680 -673 0
-683 673 0
-683 680 0
-683 673 0
684 -674 -680 -674 0
-684 674 0
-684 680 0
-684 674 0
685 -677 -680 -679 0
-685 677 0
-685 680 0
-685 679 0
686 -676 -671 -672 0
-686 676 0
-686 671 0
-686 672 0
687 -672 -672 -675 0
-687 672 0
-687 672 0
-687 675 0
688 -680 -672 -679 0
-688 680 0
-688 672 0
-688 679 0
689 -676 -679 -675 0
-689 676 0
-689 679 0
-689 675 0
690 -672 -675 -674 0
-690 672 0
-690 675 0
-690 674 0
691 -684 -684 -689 0
-691 684 0
-691 684 0
-691 689 0
692 -681 -686 -684 0
-692 681 0
-692 686 0
-692 684 0
693 -683 -690 -681 0
-693 683 0
-693 690 0
-693 681 0
694 -684 -682 -687 0
-694 684 0
-694 682 0
-694 687 0
695 -682 -689 -688 0
-695 682 0
-695 689 0
-695 688 0
696 -682 -684 -689 0
-696 682 0
-696 684 0
-696 689 0
697 -681 -682 -685 0
-697 681 0
-697 682 0
-697 685 0
698 -690 -682 -682 0
-698 690 0
-698 682 0
-698 682 0
699 -685 -682 -690 0
-699 685 0
-699 682 0
-699 690 0
700 -689 -688 -683 0
-700 689 0
-700 688 0
-700 683 0
701 -692 -695 -693 0
-701 692 0
-701 695 0
-701 693 0
702 -692 -696 -700 0
-702 692 0
-702 696 0
-702 700 0
703 -693 -699 -697 0
-703 693 0
-703 699 0
-703 697 0
704 -696 -697 -694 0
-704 696 0
-704 697 0
-704 694 0
705 -700 -692 -700 0
-705 700 0
-705 692 0
-705 700 0
706 -700 -698 -694 0
-706 700 0
-706 698 0
-706 694 0
707 -697 -694 -695 0
-707 697 0
-707 694 0
-707 695 0
708 -699 -695 -691 0
-708 699 0
-708 695 0
-708 691 0
709 -699 -697 -697 0
-709 699 0
-709 697 0
-709 697 0
710 -693 -697 -695 0
-710 693 0
-710 697 0
-710 695 0
711 -710 -703 -704 0
-711 710 0
-711 703 0
-711 704 0
712 -707 -701 -708 0
-712 707 0
-712 701 0
-712 708 0
713 -707 -710 -707 0
-713 707 0
-713 710 0
-713 707 0
714 -701 -703 -704 0
-714 701 0
-714 703 0
-714 704 0
715 -705 -707 -707 0
-715 705 0
-715 707 0
-715 707 0
716 -708 -708 -707 0
-716 708 0
-716 708 0
-716 707 0
717 -705 -710 -706 0
-717 705 0
-717 710 0
-717 706 0
718 -706 -709 -701 0
-718 706 0
-718 709 0
-718 701 0
719 -704 -703 -705 0
-719 704 0
-719 703 0
-719 705 0
720 -710 -707 -710 0
-720 710 0
-720 707 0
-720 710 0
721 -719 -717 -720 0
-721 719 0
-721 717 0
-721 720 0
722 -712 -720 -719 0
-722 712 0
-722 720 0
-722 719 0
723 -719 -713 -715 0
-723 719 0
-723 713 0
-723 715 0
724 -719 -714 -718 0
-724 719 0
-724 714 0
-724 718 0
725 -712 -715 -714 0
-725 712 0
-725 715 0
-725 714 0
726 -718 -720 -718 0
-726 718 0
-726 720 0
-726 718 0
727 -713 -711 -715 0
-727 713 0
-727 711 0
-727 715 0
728 -712 -713 -713 0
-728 712 0
-728 713 0
-728 713 0
729 -717 -713 -715 0
-729 717 0
-729 713 0
-729 715 0
730 -719 -712 -713 0
-730 719 0
-730 712 0
-730 713 0
731 -721 -727 -726 0
-731 721 0
-731 727 0
-731 726 0
732 -729 -728 -729 0
-732 729 0
-732 728 0
-732 729 0
733 -721 -730 -723 0
-733 721 0
-733 730 0
-733 723 0
734 -730 -726 -729 0
-734 730 0
-734 726 0
-734 729 0
735 -724 -728 -724 0
-735 724 0
-735 728 0
-735 724 0
736 -729 -725 -721 0
-736 729 0
-736 725 0
-736 721 0
737 -721 -722 -727 0
-737 721 0
-737 722 0
-737 727 0
738 -723 -728 -721 0
-738 723 0
-738 728 0
-738 721 0
739 -724 -721 -722 0
-739 724 0
-739 721 0
-739 722 0
740 -729 -721 -727 0
-740 729 0
-740 721 0
-740 727 0
741 -731 -739 -739 0
-741 731 0
-741 739 0
-741 739 0
742 -734 -735 -739 0
-742 734 0
-742 735 0
-742 739 0
743 -731 -734 -739 0
-743 731 0
-743 734 0
-743 739 0
744 -739 -734 -739 0
-744 739 0
-744 734 0
-744 739 0
745 -732 -735 -734 0
-745 732 0
-745 735 0
-745 734 0
746 -740 -734 -736 0
-746 740 0
-746 734 0
-746 736 0
747 -739 -735 -739 0
-747 739 0
-747 735 0
-747 739 0
748 -736 -731 -738 0
-748 736 0
-748 731 0
-748 738 0
749 -733 -738 -740 0
-749 733 0
-749 738 0
-749 740 0
750 -733 -737 -733 0
-750 733 0
-750 737 0
-750 733 0
751 -744 -742 -745 0
-751 744 0
-751 742 0
-751 745 0
752 -747 -744 -750 0
-752 747 0
-752 744 0
-752 750 0
753 -745 -745 -742 0
-753 745 0
-753 745 0
-753 742 0
754 -742 -749 -750 0
-754 742 0
-754 749 0
-754 750 0
755 -745 -747 -744 0
-755 745 0
-755 747 0
-755 744 0
756 -747 -750 -743 0
-756 747 0
-756 750 0
-756 743 0
757 -745 -746 -742 0
-757 745 0
-757 746 0
-757 742 0
758 -742 -746 -750 0
-758 742 0
-758 746 0
-758 750 0
759 -750 -748 -750 0
-759 750 0
-759 748 0
-759 750 0
760 -743 -750 -748 0
-760 743 0
-760 750 0
-760 748 0
761 -759 -758 -757 0
-761 759 0
-761 758 0
-761 757 0
762 -756 -751 -759 0
-762 756 0
-762 751 0
-762 759 0
763 -760 -752 -756 0
-763 760 0
-763 752 0
-763 756 0
764 -755 -754 -756 0
-764 755 0
-764 754 0
-764 756 0
765 -757 -756 -757 0
-765 757 0
-765 756 0
-765 757 0
766 -755 -759 -757 0
-766 755 0
-766 759 0
-766 757 0
767 -756 -755 -754 0
-767 756 0
-767 755 0
-767 754 0
768 -759 -751 -758 0
-768 759 0
-768 751 0
-768 758 0
769 -752 -759 -757 0
-769 752 0
-769 759 0
-769 757 0
770 -754 -753 -751 0
-770 754 0
-770 753 0
-770 751 0
771 -765 -770 -770 0
-771 765 0
-771 770 0
-771 770 0
772 -770 -764 -769 0
-772 770 0
-772 764 0
-772 769 0
773 -765 -765 -766 0
-773 765 0
-773 765 0
-773 766 0
774 -769 -767 -762 0
-774 769 0
-774 767 0
-774 762 0
775 -769 -768 -765 0
-775 769 0
-775 768 0
-775 765 0
776 -764 -770 -766 0
-776 764 0
-776 770 0
-776 766 0
777 -761 -768 -766 0
-777 761 0
-777 768 0
-777 766 0
778 -761 -770 -770 0
-778 761 0
-778 770 0
-778 770 0
779 -764 -765 -768 0
-779 764 0
-779 765 0
-779 768 0
780 -764 -770 -765 0
-780 764 0
-780 770 0
-780 765 0
781 -772 -777 -778 0
-781 772 0
-781 777 0
-781 778 0
782 -772 -775 -775 0
-782 772 0
-782 775 0
-782 775 0
783 -775 -776 -778 0
-783 775 0
-783 776 0
-783 778 0
784 -776 -772 -771 0
-784 776 0
-784 772 0
-784 771 0
785 -776 -775 -779 0
-785 776 0
-785 775 0
-785 779 0
786 -773 -771 -774 0
-786 773 0
-786 771 0
-786 774 0
787 -772 -780 -772 0
-787 772 0
-787 780 0
-787 772 0
788 -775 -777 -780 0
-788 775 0
-788 777 0
-788 780 0
789 -779 -775 -777 0
-789 779 0
-789 775 0
-789 777 0
790 -780 -779 -780 0
-790 780 0
-790 779 0
-790 780 0
791 -781 -781 -782 0
-791 781 0
-791 781 0
-791 782 0
792 -784 -782 -784 0
-792 784 0
-792 782 0
-792 784 0
793 -786 -787 -784 0
-793 786 0
-793 787 0
-793 784 0
794 -790 -785 -785 0
-794 790 0
-794 785 0
-794 785 0
795 -789 -790 -789 0
-795 789 0
-795 790 0
-795 789 0
796 -787 -790 -785 0
-796 787 0
-796 790 0
-796 785 0
797 -787 -783 -786 0
-797 787 0
-797 783 0
-797 786 0
798 -784 -788 -786 0
-798 784 0
-798 788 0
-798 786 0
799 -786 -781 -786 0
-799 786 0
-799 781 0
-799 786 0
800 -781 -790 -790 0
-800 781 0
-800 790 0
-800 790 0
801 -795 -797 -793 0
-801 795 0
-801 797 0
-801 793 0
802 -792 -795 -791 0
-802 792 0
-802 795 0
-802 791 0
803 -791 -796 -798 0
-803 791 0
-803 796 0
-803 798 0
804 -794 -792 -800 0
-804 794 0
-804 792 0
-804 800 0
805 -797 -792 -798 0
-805 797 0
-805 792 0
-805 798 0
806 -792 -793 -792 0
-806 792 0
-806 793 0
-806 792 0
807 -791 -796 -792 0
-807 791 0
-807 796 0
-807 792 0
808 -791 -795 -795 0
-808 791 0
-808 795 0
-808 795 0
809 -797 -798 -796 0
-809 797 0
-809 798 0
-809 796 0
810 -795 -791 -791 0
-810 795 0
-810 791 0
-810 791 0
811 -805 -807 -803 0
-811 805 0
-811 807 0
-811 803 0
812 -803 -808 -803 0
-812 803 0
-812 808 0
-812 803 0
813 -803 -803 -809 0
-813 803 0
-813 803 0
-813 809 0
814 -801 -801 -807 0
-814 801 0
-814 801 0
-814 807 0
815 -809 -808 -805 0
-815 809 0
-815 808 0
-815 805 0
816 -808 -801 -805 0
-816 808 0
-816 801 0
-816 805 0
817 -805 -807 -803 0
-817 805 0
-817 807 0
-817 803 0
818 -804 -804 -810 0
-818 804 0
-818 804 0
-818 810 0
819 -808 -806 -808 0
-819 808 0
-819 806 0
-819 808 0
820 -805 -801 -809 0
-820 805 0
-820 801 0
-820 809 0
821 -815 -811 -815 0
-821 815 0
-821 811 0
-821 815 0
822 -817 -816 -818 0
-822 817 0
-822 816 0
-822 818 0
823 -816 -820 -812 0
-823 816 0
-823 820 0
-823 812 0
824 -820 -814 -818 0
-824 820 0
-824 814 0
-824 818 0
825 -817 -814 -812 0
-825 817 0
-825 814 0
-825 812 0
826 -812 -811 -819 0
-826 812 0
-826 811 0
-826 819 0
827 -819 -811 -819 0
-827 819 0
-827 811 0
-827 819 0
828 -819 -814 -813 0
-828 819 0
-828 814 0
-828 813 0
829 -820 -812 -818 0
-829 820 0
-829 812 0
-829 818 0
830 -811 -820 -814 0
-830 811 0
-830 820 0
-830 814 0
831 -824 -828 -825 0
-831 824 0
-831 828 0
-831 825 0
832 -823 -829 -823 0
-832 823 0
-832 829 0
-832 823 0
833 -828 -829 -827 0
-833 828 0
-833 829 0
-833 827 0
834 -826 -826 -826 0
-834 826 0
-834 826 0
-834 826 0
835 -822 -821 -828 0
-835 822 0
-835 821 0
-835 828 0
836 -822 -826 -822 0
-836 822 0
-836 826 0
-836 822 0
837 -822 -829 -825 0
-837 822 0
-837 829 0
-837 825 0
838 -828 -829 -823 0
-838 828 0
-838 829 0
-838 823 0
839 -827 -825 -825 0
-839 827 0
-839 825 0
-839 825 0
840 -826 -825 -824 0
-840 826 0
-840 825 0
-840 824 0
841 -834 -833 -831 0
-841 834 0
-841 833 0
-841 831 0
842 -837 -840 -837 0
-842 837 0
-842 840 0
-842 837 0
843 -839 -832 -835 0
-843 839 0
-843 832 0
-843 835 0
844 -831 -839 -837 0
-844 831 0
-844 839 0
-844 837 0
845 -836 -836 -834 0
-845 836 0
-845 836 0
-845 834 0
846 -831 -831 -837 0
-846 831 0
-846 831 0
-846 837 0
847 -832 -834 -834 0
-847 832 0
-847 834 0
-847 834 0
848 -840 -837 -835 0
-848 840 0
-848 837 0
-848 835 0
849 -836 -832 -834 0
-849 836 0
-849 832 0
-849 834 0
850 -834 -833 -835 0
-850 834 0
-850 833 0
-850 835 0
851 -841 -849 -850 0
-851 841 0
-851 849 0
-851 850 0
852 -850 -841 -841 0
-852 850 0
-852 841 0
-852 841 0
853 -843 -850 -848 0
-853 843 0
-853 850 0
-853 848 0
854 -850 -843 -850 0
-854 850 0
-854 843 0
-854 850 0
855 -850 -850 -841 0
-855 850 0
-855 850 0
-855 841 0
856 -847 -842 -842 0
-856 847 0
-856 842 0
-856 842 0
857 -845 -846 -842 0
-857 845 0
-857 846 0
-857 842 0
858 -847 -843 -848 0
-858 847 0
-858 843 0
-858 848 0
859 -850 -843 -847 0
-859 850 0
-859 843 0
-859 847 0
860 -846 -842 -844 0
-860 846 0
-860 842 0
-860 844 0
861 -854 -857 -855 0
-861 854 0
-861 857 0
-861 855 0
862 -855 -851 -853 0
-862 855 0
-862 851 0
-862 853 0
863 -853 -858 -856 0
-863 853 0
-863 858 0
-863 856 0
864 -855 -854 -854 0
-864 855 0
-864 854 0
-864 854 0
865 -853 -853 -855 0
-865 853 0
-865 853 0
-865 855 0
866 -858 -858 -857 0
-866 858 0
-866 858 0
-866 857 0
867 -855 -851 -854 0
-867 855 0
-867 851 0
-867 854 0
868 -856 -858 -853 0
-868 856 0
-868 858 0
-868 853 0
869 -858 -857 -856 0
-869 858 0
-869 857 0
-869 856 0
870 -855 -860 -857 0
-870 855 0
-870 860 0
-870 857 0
871 -866 -867 -865 0
-871 866 0
-871 867 0
-871 865 0
872 -865 -864 -861 0
-872 865 0
-872 864 0
-872 861 0
873 -867 -870 -867 0
-873 867 0
-873 870 0
-873 867 0
874 -870 -870 -868 0
-874 870 0
-874 870 0
-874 868 0
875 -866 -870 -869 0
-875 866 0
-875 870 0
-875 869 0
876 -864 -866 -862 0
-876 864 0
-876 866 0
-876 862 0
877 -861 -863 -861 0
-877 861 0
-877 863 0
-877 861 0
878 -868 -869 -869 0
-878 868 0
-878 869 0
-878 869 0
879 -865 -870 -865 0
-879 865 0
-879 870 0
-879 865 0
880 -862 -869 -863 0
-880 862 0
-880 869 0
-880 863 0
881 -877 -876 -871 0
-881 877 0
-881 876 0
-881 871 0
882 -874 -876 -880 0
-882 874 0
-882 876 0
-882 880 0
883 -877 -877 -880 0
-883 877 0
-883 877 0
-883 880 0
884 -873 -875 -874 0
-884 873 0
-884 875 0
-884 874 0
885 -873 -879 -875 0
-885 873 0
-885 879 0
-885 875 0
886 -876 -875 -879 0
-886 876 0
-886 875 0
-886 879 0
887 -878 -876 -872 0
-887 878 0
-887 876 0
-887 872 0
888 -873 -879 -872 0
-888 873 0
-888 879 0
-888 872 0
889 -873 -880 -879 0
-889 873 0
-889 880 0
-889 879 0
890 -880 -879 -880 0
-890 880 0
-890 879 0
-890 880 0
891 -890 -881 -883 0
-891 890 0
-891 881 0
-891 883 0
892 -887 -887 -883 0
-892 887 0
-892 887 0
-892 883 0
893 -885 -884 -884 0
-893 885 0
-893 884 0
-893 884 0
894 -883 -881 -881 0
-894 883 0
-894 881 0
-894 881 0
895 -887 -883 -886 0
-895 887 0
-895 883 0
-895 886 0
896 -885 -881 -883 0
-896 885 0
-896 881 0
-896 883 0
897 -882 -882 -888 0
-897 882 0
-897 882 0
-897 888 0
898 -887 -883 -887 0
-898 887 0
-898 883 0
-898 887 0
899 -887 -882 -887 0
-899 887 0
-899 882 0
-899 887 0
900 -885 -883 -889 0
-900 885 0
-900 883 0
-900 889 0
901 -898 -900 -898 0
-901 898 0
-901 900 0
-901 898 0
902 -898 -897 -897 0
-902 898 0
-902 897 0
-902 897 0
903 -900 -897 -891 0
-903 900 0
-903 897 0
-903 891 0
904 -900 -897 -894 0
-904 900 0
-904 897 0
-904 894 0
905 -899 -893 -892 0
-905 899 0
-905 893 0
-905 892 0
906 -900 -891 -899 0
-906 900 0
-906 891 0
-906 899 0
907 -900 -897 -893 0
-907 900 0
-907 897 0
-907 893 0
908 -899 -895 -899 0
-908 899 0
-908 895 0
-908 899 0
909 -897 -899 -898 0
-909 897 0
-909 899 0
-909 898 0
910 -897 -897 -893 0
-910 897 0
-910 897 0
-910 893 0
911 -908 -907 -909 0
-911 908 0
-911 907 0
-911 909 0
912 -906 -909 -904 0
-912 906 0
-912 909 0
-912 904 0
913 -910 -907 -904 0
-913 910 0
-913 907 0
-913 904 0
914 -909 -901 -904 0
-914 909 0
-914 901 0
-914 904 0
915 -909 -901 -903 0
-915 909 0
-915 901 0
-915 903 0
916 -907 -903 -904 0
-916 907 0
-916 903 0
-916 904 0
917 -909 -904 -904 0
-917 909 0
-917 904 0
-917 904 0
918 -909 -905 -908 0
-918 909 0
-918 905 0
-918 908 0
919 -907 -910 -904 0
-919 907 0
-919 910 0
-919 904 0
920 -905 -905 -902 0
-920 905 0
-920 905 0
-920 902 0
921 -915 -911 -920 0
-921 915 0
-921 911 0
-921 920 0
922 -911 -919 -913 0
-922 911 0
-922 919 0
-922 913 0
923 -912 -913 -915 0
-923 912 0
-923 913 0
-923 915 0
924 -918 -913 -918 0
-924 918 0
-924 913 0
-924 918 0
925 -918 -915 -916 0
-925 918 0
-925 915 0
-925 916 0
926 -911 -913 -917 0
-926 911 0
-926 913 0
-926 917 0
927 -911 -916 -912 0
-927 911 0
-927 916 0
-927 912 0
928 -914 -913 -913 0
-928 914 0
-928 913 0
-928 913 0
929 -912 -914 -914 0
-929 912 0
-929 914 0
-929 914 0
930 -916 -920 -916 0
-930 916 0
-930 920 0
-930 916 0
931 -927 -928 -924 0
-931 927 0
-931 928 0
-931 924 0
932 -930 -923 -924 0
-932 930 0
-932 923 0
-932 924 0
933 -926 -924 -927 0
-933 926 0
-933 924 0
-933 927 0
934 -921 -922 -928 0
-934 921 0
-934 922 0
-934 928 0
935 -923 -925 -928 0
-935 923 0
-935 925 0
-935 928 0
936 -928 -922 -922 0
-936 928 0
-936 922 0
-936 922 0
937 -926 -927 -929 0
-937 926 0
-937 927 0
-937 929 0
938 -927 -929 -924 0
-938 927 0
-938 929 0
-938 924 0
939 -924 -921 -922 0
-939 924 0
-939 921 0
-939 922 0
940 -921 -929 -927 0
-940 921 0
-940 929 0
-940 927 0
941 -935 -936 -933 0
-941 935 0
-941 936 0
-941 933 0
942 -939 -935 -938 0
-942 939 0
-942 935 0
-942 938 0
943 -932 -932 -940 0
-943 932 0
-943 932 0
-943 940 0
944 -934 -934 -931 0
-944 934 0
-944 934 0
-944 931 0
945 -931 -939 -936 0
-945 931 0
-945 939 0
-945 936 0
946 -933 -934 -939 0
-946 933 0
-946 934 0
-946 939 0
947 -938 -937 -933 0
-947 938 0
-947 937 0
-947 933 0
948 -939 -939 -932 0
-948 939 0
-948 939 0
-948 932 0
949 -940 -933 -939 0
-949 940 0
-949 933 0
-949 939 0
950 -940 -934 -934 0
-950 940 0
-950 934 0
-950 934 0
951 -943 -947 -941 0
-951 943 0
-951 947 0
-951 941 0
952 -947 -945 -946 0
-952 947 0
-952 945 0
-952 946 0
953 -941 -948 -948 0
-953 941 0
-953 948 0
-953 948 0
954 -949 -942 -945 0
-954 949 0
-954 942 0
-954 945 0
955 -943 -942 -944 0
-955 943 0
-955 942 0
-955 944 0
956 -943 -950 -946 0
-956 943 0
-956 950 0
-956 946 0
957 -945 -950 -949 0
-957 945 0
-957 950 0
-957 949 0
958 -948 -950 -947 0
-958 948 0
-958 950 0
-958 947 0
959 -948 -946 -946 0
-959 948 0
-959 946 0
-959 946 0
960 -950 -948 -947 0
-960 950 0
-960 948 0
-960 947 0
961 -954 -959 -956 0
-961 954 0
-961 959 0
-961 956 0
962 -955 -958 -955 0
-962 955 0
-962 958 0
-962 955 0
963 -953 -955 -954 0
-963 953 0
-963 955 0
-963 954 0
964 -956 -951 -954 0
-964 956 0
-964 951 0
-964 954 0
965 -956 -959 -955 0
-965 956 0
-965 959 0
-965 955 0
966 -953 -959 -952 0
-966 953 0
-966 959 0
-966 952 0
967 -955 -960 -953 0
-967 955 0
-967 960 0
-967 953 0
968 -960 -956 -953 0
-968 960 0
-968 956 0
-968 953 0
969 -952 -952 -955 0
-969 952 0
-969 952 0
-969 955 0
970 -952 -955 -955 0
-970 952 0
-970 955 0
-970 955 0
971 -968 -962 -969 0
-971 968 0
-971 962 0
-971 969 0
972 -969 -969 -962 0
-972 969 0
-972 969 0
-972 962 0
973 -969 -968 -967 0
-973 969 0
-973 968 0
-973 967 0
974 -961 -961 -970 0
-974 961 0
-974 961 0
-974 970 0
975 -962 -964 -961 0
-975 962 0
-975 964 0
-975 961 0
976 -963 -969 -961 0
-976 963 0
-976 969 0
-976 961 0
977 -968 -962 -969 0
-977 968 0
-977 962 0
-977 969 0
978 -969 -963 -961 0
-978 969 0
-978 963 0
-978 961 0
979 -965 -963 -967 0
-979 965 0
-979 963 0
-979 967 0
980 -968 -967 -963 0
-980 968 0
-980 967 0
-980 963 0
981 -978 -975 -976 0
-981 978 0
-981 975 0
-981 976 0
982 -977 -980 -973 0
-982 977 0
-982 980 0
-982 973 0
983 -976 -971 -971 0
-983 976 0
-983 971 0
-983 971 0
984 -976 -980 -978 0
-984 976 0
-984 980 0
-984 978 0
985 -976 -977 -974 0
-985 976 0
-985 977 0
-985 974 0
986 -973 -976 -979 0
-986 973 0
-986 976 0
-986 979 0
987 -978 -977 -974 0
-987 978 0
-987 977 0
-987 974 0
988 -977 -972 -977 0
-988 977 0
-988 972 0
-988 977 0
989 -973 -976 -974 0
-989 973 0
-989 976 0
-989 974 0
990 -971 -972 -972 0
-990 971 0
-990 972 0
-990 972 0
991 -985 -984 -987 0
-991 985 0
-991 984 0
-991 987 0
992 -981 -981 -988 0
-992 981 0
-992 981 0
-992 988 0
993 -990 -981 -987 0
-993 990 0
-993 981 0
-993 987 0
994 -985 -989 -986 0
-994 985 0
-994 989 0
-994 986 0
995 -990 -990 -990 0
-995 990 0
-995 990 0
-995 990 0
996 -984 -984 -983 0
-996 984 0
-996 984 0
-996 983 0
997 -981 -982 -985 0
-997 981 0
-997 982 0
-997 985 0
998 -982 -987 -984 0
-998 982 0
-998 987 0
-998 984 0
999 -990 -987 -987 0
-999 990 0
-999 987 0
-999 987 0
1000 -990 -984 -985 0
-1000 990 0
-1000 984 0
-1000 985 0
1001 -993 -994 -993 0
-1001 993 0
-1001 994 0
-1001 993 0
1002 -1000 -1000 -999 0
-1002 1000 0
-1002 1000 0
-1002 999 0
1003 -994 -998 -994 0
-1003 994 0
-1003 998 0
-1003 994 0
1004 -999 -993 -996 0
-1004 999 0
-1004 993 0
-1004 996 0
1005 -991 -997 -991 0
-1005 991 0
-1005 997 0
-1005 991 0
1006 -991 -996 -994 0
-1006 991 0
-1006 996 0
-1006 994 0
1007 -999 -995 -994 0
-1007 999 0
-1007 995 0
-1007 994 0
1008 -999 -995 -994 0
-1008 999 0
-1008 995 0
-1008 994 0
1009 -996 -993 -997 0
-1009 996 0
-1009 993 0
-1009 997 0
1010 -996 -991 -998 0
-1010 996 0
-1010 991 0
-1010 998 0
1011 -1009 -1004 -1003 0
-1011 1009 0
-1011 1004 0
-1011 1003 0
1012 -1007 -1009 -1003 0
-1012 1007 0
-1012 1009 0
-1012 1003 0
1013 -1001 -1006 -1002 0
-1013 1001 0
-1013 1006 0
-1013 1002 0
1014 -1009 -1003 -1001 0
-1014 1009 0
-1014 1003 0
-1014 1001 0
1015 -1010 -1002 -1002 0
-1015 1010 0
-1015 1002 0
-1015 1002 0
1016 -1005 -1009 -1001 0
-1016 1005 0
-1016 1009 0
-1016 1001 0
1017 -1001 -1007 -1006 0
-1017 1001 0
-1017 1007 0
-1017 1006 0
1018 -1001 -1003 -1004 0
-1018 1001 0
-1018 1003 0
-1018 1004 0
1019 -1004 -1005 -1003 0
-1019 1004 0
-1019 1005 0
-1019 1003 0
1020 -1010 -1006 -1008 0
-1020 1010 0
-1020 1006 0
-1020 1008 0
1021 -1015 -1015 -1017 0
-1021 1015 0
-1021 1015 0
-1021 1017 0
1022 -1012 -1011 -1014 0
-1022 1012 0
-1022 1011 0
-1022 1014 0
1023 -1016 -1012 -1015 0
-1023 1016 0
-1023 1012 0
-1023 1015 0
1024 -1011 -1011 -1016 0
-1024 1011 0
-1024 1011 0
-1024 1016 0
1025 -1017 -1020 -1018 0
-1025 1017 0
-1025 1020 0
-1025 1018 0
1026 -1011 -1013 -1015 0
-1026 1011 0
-1026 1013 0
-1026 1015 0
1027 -1014 -1013 -1015 0
-1027 1014 0
-1027 1013 0
-1027 1015 0
1028 -1016 -1013 -1013 0
-1028 1016 0
-1028 1013 0
-1028 1013 0
1029 -1015 -1020 -1015 0
-1029 1015 0
-1029 1020 0
-1029 1015 0
1030 -1013 -1017 -1017 0
-1030 1013 0
-1030 1017 0
-1030 1017 0
1031 -1021 -1030 -1029 0
-1031 1021 0
-1031 1030 0
-1031 1029 0
1032 -1025 -1028 -1030 0
-1032 1025 0
-1032 1028 0
-1032 1030 0
1033 -1026 -1029 -1023 0
-1033 1026 0
-1033 1029 0
-1033 1023 0
1034 -1023 -1023 -1022 0
-1034 1023 0
-1034 1023 0
-1034 1022 0
1035 -1021 -1024 -1030 0
-1035 1021 0
-1035 1024 0
-1035 1030 0
1036 -1026 -1029 -1026 0
-1036 1026 0
-1036 1029 0
-1036 1026 0
1037 -1028 -1021 -1025 0
-1037 1028 0
-1037 1021 0
-1037 1025 0
1038 -1027 -1026 -1030 0
-1038 1027 0
-1038 1026 0
-1038 1030 0
1039 -1021 -1023 -1026 0
-1039 1021 0
-1039 1023 0
-1039 1026 0
1040 -1030 -1022 -1027 0
-1040 1030 0
-1040 1022 0
-1040 1027 0
1041 -1037 -1033 -1036 0
-1041 1037 0
-1041 1033 0
-1041 1036 0
1042 -1034 -1031 -1035 0
-1042 1034 0
-1042 1031 0
-1042 1035 0
1043 -1038 -1032 -1040 0
-1043 1038 0
-1043 1032 0
-1043 1040 0
1044 -1031 -1037 -1032 0
-1044 1031 0
-1044 1037 0
-1044 1032 0
1045 -1032 -1032 -1031 0
-1045 1032 0
-1045 1032 0
-1045 1031 0
1046 -1036 -1032 -1035 0
-1046 1036 0
-1046 1032 0
-1046 1035 0
1047 -1038 -1038 -1037 0
-1047 1038 0
-1047 1038 0
-1047 1037 0
1048 -1038 -1037 -1040 0
-1048 1038 0
-1048 1037 0
-1048 1040 0
1049 -1032 -1039 -1033 0
-1049 1032 0
-1049 1039 0
-1049 1033 0
1050 -1036 -1031 -1031 0
-1050 1036 0
-1050 1031 0
-1050 1031 0
1051 -1043 -1048 -1047 0
-1051 1043 0
-1051 1048 0
-1051 1047 0
1052 -1043 -1048 -1046 0
-1052 1043 0
-1052 1048 0
-1052 1046 0
1053 -1045 -1050 -1043 0
-1053 1045 0
-1053 1050 0
-1053 1043 0
1054 -1048 -1047 -1045 0
-1054 1048 0
-1054 1047 0
-1054 1045 0
1055 -1042 -1049 -1046 0
-1055 1042 0
-1055 1049 0
-1055 1046 0
1056 -1049 -1050 -1044 0
-1056 1049 0
-1056 1050 0
-1056 1044 0
1057 -1043 -1044 -1047 0
-1057 1043 0
-1057 1044 0
-1057 1047 0
1058 -1046 -1046 -1044 0
-1058 1046 0
-1058 1046 0
-1058 1044 0
1059 -1043 -1046 -1045 0
-1059 1043 0
-1059 1046 0
-1059 1045 0
1060 -1046 -1043 -1049 0
-1060 1046 0
-1060 1043 0
-1060 1049 0
1061 -1055 -1055 -1054 0
-1061 1055 0
-1061 1055 0
-1061 1054 0
1062 -1054 -1053 -1060 0
-1062 1054 0
-1062 1053 0
-1062 1060 0
1063 -1057 -1051 -1056 0
-1063 1057 0
-1063 1051 0
-1063 1056 0
1064 -1055 -1053 -1055 0
-1064 1055 0
-1064 1053 0
-1064 1055 0
1065 -1056 -1057 -1056 0
-1065 1056 0
-1065 1057 0
-1065 1056 0
1066 -1057 -1060 -1059 0
-1066 1057 0
-1066 1060 0
-1066 1059 0
1067 -1056 -1060 -1057 0
-1067 1056 0
-1067 1060 0
-1067 1057 0
1068 -1052 -1056 -1054 0
-1068 1052 0
-1068 1056 0
-1068 1054 0
1069 -1059 -1060 -1058 0
-1069 1059 0
-1069 1060 0
-1069 1058 0
1070 -1052 -1056 -1055 0
-1070 1052 0
-1070 1056 0
-1070 1055 0
1071 -1064 -1061 -1062 0
-1071 1064 0
-1071 1061 0
-1071 1062 0
1072 -1068 -1063 -1066 0
-1072 1068 0
-1072 1063 0
-1072 1066 0
1073 -1065 -1066 -1062 0
-1073 1065 0
-1073 1066 0
-1073 1062 0
1074 -1066 -1068 -1066 0
-1074 1066 0
-1074 1068 0
-1074 1066 0
1075 -1062 -1063 -1064 0
-1075 1062 0
-1075 1063 0
-1075 1064 0
1076 -1066 -1069 -1066 0
-1076 1066 0
-1076 1069 0
-1076 1066 0
1077 -1066 -1064 -1061 0
-1077 1066 0
-1077 1064 0
-1077 1061 0
1078 -1064 -1066 -1069 0
-1078 1064 0
-1078 1066 0
-1078 1069 0
1079 -1063 -1066 -1068 0
-1079 1063 0
-1079 1066 0
-1079 1068 0
1080 -1062 -1061 -1065 0
-1080 1062 0
-1080 1061 0
-1080 1065 0
1081 -1074 -1073 -1078 0
-1081 1074 0
-1081 1073 0
-1081 1078 0
1082 -1075 -1072 -1078 0
-1082 1075 0
-1082 1072 0
-1082 1078 0
1083 -1076 -1071 -1071 0
-1083 1076 0
-1083 1071 0
-1083 1071 0
1084 -1076 -1075 -1080 0
-1084 1076 0
-1084 1075 0
-1084 1080 0
1085 -1071 -1077 -1076 0
-1085 1071 0
-1085 1077 0
-1085 1076 0
1086 -1073 -1071 -1072 0
-1086 1073 0
-1086 1071 0
-1086 1072 0
1087 -1076 -1077 -1071 0
-1087 1076 0
-1087 1077 0
-1087 1071 0
1088 -1075 -1079 -1076 0
-1088 1075 0
-1088 1079 0
-1088 1076 0
1089 -1075 -1076 -1074 0
-1089 1075 0
-1089 1076 0
-1089 1074 0
1090 -1075 -1073 -1080 0
-1090 1075 0
-1090 1073 0
-1090 1080 0
1091 -1090 -1083 -1090 0
-1091 1090 0
-1091 1083 0
-1091 1090 0
1092 -1087 -1089 -1083 0
-1092 1087 0
-1092 1089 0
-1092 1083 0
1093 -1082 -1081 -1084 0
-1093 1082 0
-1093 1081 0
-1093 1084 0
1094 -1082 -1083 -1088 0
-1094 1082 0
-1094 1083 0
-1094 1088 0
1095 -1083 -1090 -1081 0
-1095 1083 0
-1095 1090 0
-1095 1081 0
1096 -1083 -1085 -1087 0
-1096 1083 0
-1096 1085 0
-1096 1087 0
1097 -1090 -1088 -1087 0
-1097 1090 0
-1097 1088 0
-1097 1087 0
1098 -1086 -1083 -1087 0
-1098 1086 0
-1098 1083 0
-1098 1087 0
1099 -1089 -1089 -1087 0
-1099 1089 0
-1099 1089 0
-1099 1087 0
1100 -1082 -1083 -1082 0
-1100 1082 0
-1100 1083 0
-1100 1082 0
1101 -1096 -1099 -1091 0
-1101 1096 0
-1101 1099 0
-1101 1091 0
1102 -1100 -1093 -1091 0
-1102 1100 0
-1102 1093 0
-1102 1091 0
1103 -1094 -1091 -1092 0
-1103 1094 0
-1103 1091 0
-1103 1092 0
1104 -1094 -1096 -1092 0
-1104 1094 0
-1104 1096 0
-1104 1092 0
1105 -1092 -1097 -1093 0
-1105 1092 0
-1105 1097 0
-1105 1093 0
1106 -1100 -1093 -1095 0
-1106 1100 0
-1106 1093 0
-1106 1095 0
1107 -1094 -1095 -1096 0
-1107 1094 0
-1107 1095 0
-1107 1096 0
1108 -1096 -1091 -1093 0
-1108 1096 0
-1108 1091 0
-1108 1093 0
1109 -1096 -1091 -1091 0
-1109 1096 0
-1109 1091 0
-1109 1091 0
1110 -1092 -1098 -1092 0
-1110 1092 0
-1110 1098 0
-1110 1092 0
1111 -1102 -1102 -1108 0
-1111 1102 0
-1111 1102 0
-1111 1108 0
1112 -1110 -1108 -1103 0
-1112 1110 0
-1112 1108 0
-1112 1103 0
1113 -1110 -1101 -1108 0
-1113 1110 0
-1113 1101 0
-1113 1108 0
1114 -1105 -1106 -1108 0
-1114 1105 0
-1114 1106 0
-1114 1108 0
1115 -1102 -1108 -1102 0
-1115 1102 0
-1115 1108 0
-1115 1102 0
1116 -1109 -1107 -1104 0
-1116 1109 0
-1116 1107 0
-1116 1104 0
1117 -1106 -1107 -1101 0
-1117 1106 0
-1117 1107 0
-1117 1101 0
1118 -1104 -1108 -1110 0
-1118 1104 0
-1118 1108 0
-1118 1110 0
1119 -1102 -1101 -1101 0
-1119 1102 0
-1119 1101 0
-1119 1101 0
1120 -1104 -1110 -1105 0
-1120 1104 0
-1120 1110 0
-1120 1105 0
1121 -1118 -1118 -1117 0
-1121 1118 0
-1121 1118 0
-1121 1117 0
1122 -1111 -1118 -1112 0
-1122 1111 0
-1122 1118 0
-1122 1112 0
1123 -1120 -1120 -1116 0
-1123 1120 0
-1123 1120 0
-1123 1116 0
1124 -1116 -1112 -1118 0
-1124 1116 0
-1124 1112 0
-1124 1118 0
1125 -1116 -1116 -1116 0
-1125 1116 0
-1125 1116 0
-1125 1116 0
1126 -1116 -1118 -1117 0
-1126 1116 0
-1126 1118 0
-1126 1117 0
1127 -1115 -1111 -1119 0
-1127 1115 0
-1127 1111 0
-1127 1119 0
1128 -1120 -1114 -1118 0
-1128 1120 0
-1128 1114 0
-1128 1118 0
1129 -1111 -1111 -1119 0
-1129 1111 0
-1129 1111 0
-1129 1119 0
1130 -1118 -1116 -1113 0
-1130 1118 0
-1130 1116 0
-1130 1113 0
1131 -1125 -1127 -1121 0
-1131 1125 0
-1131 1127 0
-1131 1121 0
1132 -1128 -1121 -1128 0
-1132 1128 0
-1132 1121 0
-1132 1128 0
1133 -1123 -1124 -1130 0
-1133 1123 0
-1133 1124 0
-1133 1130 0
1134 -1130 -1126 -1126 0
-1134 1130 0
-1134 1126 0
-1134 1126 0
1135 -1124 -1127 -1121 0
-1135 1124 0
-1135 1127 0
-1135 1121 0
1136 -1130 -1126 -1126 0
-1136 1130 0
-1136 1126 0
-1136 1126 0
1137 -1123 -1122 -1124 0
-1137 1123 0
-1137 1122 0
-1137 1124 0
1138 -1127 -1121 -1123 0
-1138 1127 0
-1138 1121 0
-1138 1123 0
1139 -1122 -1124 -1125 0
-1139 1122 0
-1139 1124 0
-1139 1125 0
1140 -1123 -1123 -1126 0
-1140 1123 0
-1140 1123 0
-1140 1126 0
1141 -1133 -1138 -1140 0
-1141 1133 0
-1141 1138 0
-1141 1140 0
1142 -1133 -1140 -1137 0
-1142 1133 0
-1142 1140 0
-1142 1137 0
1143 -1132 -1137 -1140 0
-1143 1132 0
-1143 1137 0
-1143 1140 0
1144 -1136 -1132 -1135 0
-1144 1136 0
-1144 1132 0
-1144 1135 0
1145 -1140 -1133 -1135 0
-1145 1140 0
-1145 1133 0
-1145 1135 0
1146 -1138 -1134 -1131 0
-1146 1138 0
-1146 1134 0
-1146 1131 0
1147 -1132 -1140 -1140 0
-1147 1132 0
-1147 1140 0
-1147 1140 0
1148 -1134 -1137 -1134 0
-1148 1134 0
-1148 1137 0
-1148 1134 0
1149 -1140 -1139 -1134 0
-1149 1140 0
-1149 1139 0
-1149 1134 0
1150 -1133 -1137 -1132 0
-1150 1133 0
-1150 1137 0
-1150 1132 0
1151 -1143 -1150 -1148 0
-1151 1143 0
-1151 1150 0
-1151 1148 0
1152 -1150 -1149 -1149 0
-1152 1150 0
-1152 1149 0
-1152 1149 0
1153 -1148 -1142 -1147 0
-1153 1148 0
-1153 1142 0
-1153 1147 0
1154 -1150 -1148 -1150 0
-1154 1150 0
-1154 1148 0
-1154 1150 0
1155 -1141 -1142 -1150 0
-1155 1141 0
-1155 1142 0
-1155 1150 0
1156 -1150 -1143 -1150 0
-1156 1150 0
-1156 1143 0
-1156 1150 0
1157 -1146 -1150 -1146 0
-1157 1146 0
-1157 1150 0
-1157 1146 0
1158 -1148 -1150 -1144 0
-1158 1148 0
-1158 1150 0
-1158 1144 0
1159 -1142 -1145 -1145 0
-1159 1142 0
-1159 1145 0
-1159 1145 0
1160 -1141 -1146 -1150 0
-1160 1141 0
-1160 1146 0
-1160 1150 0
1161 -1160 -1155 -1158 0
-1161 1160 0
-1161 1155 0
-1161 1158 0
1162 -1159 -1156 -1157 0
-1162 1159 0
-1162 1156 0
-1162 1157 0
1163 -1159 -1154 -1153 0
-1163 1159 0
-1163 1154 0
-1163 1153 0
1164 -1160 -1158 -1160 0
-1164 1160 0
-1164 1158 0
-1164 1160 0
1165 -1159 -1154 -1156 0
-1165 1159 0
-1165 1154 0
-1165 1156 0
1166 -1157 -1155 -1155 0
-1166 1157 0
-1166 1155 0
-1166 1155 0
1167 -1159 -1158 -1154 0
-1167 1159 0
-1167 1158 0
-1167 1154 0
1168 -1158 -1160 -1159 0
-1168 1158 0
-1168 1160 0
-1168 1159 0
1169 -1156 -1159 -1152 0
-1169 1156 0
-1169 1159 0
-1169 1152 0
1170 -1159 -1159 -1155 0
-1170 1159 0
-1170 1159 0
-1170 1155 0
1171 -1168 -1162 -1168 0
-1171 1168 0
-1171 1162 0
-1171 1168 0
1172 -1161 -1161 -1163 0
-1172 1161 0
-1172 1161 0
-1172 1163 0
1173 -1162 -1164 -1165 0
-1173 1162 0
-1173 1164 0
-1173 1165 0
1174 -1166 -1166 -1165 0
-1174 1166 0
-1174 1166 0
-1174 1165 0
1175 -1169 -1165 -1163 0
-1175 1169 0
-1175 1165 0
-1175 1163 0
1176 -1165 -1168 -1161 0
-1176 1165 0
-1176 1168 0
-1176 1161 0
1177 -1161 -1164 -1167 0
-1177 1161 0
-1177 1164 0
-1177 1167 0
1178 -1166 -1165 -1168 0
-1178 1166 0
-1178 1165 0
-1178 1168 0
1179 -1165 -1167 -1166 0
-1179 1165 0
-1179 1167 0
-1179 1166 0
1180 -1165 -1166 -1164 0
-1180 1165 0
-1180 1166 0
-1180 1164 0
1181 -1172 -1177 -1178 0
-1181 1172 0
-1181 1177 0
-1181 1178 0
1182 -1175 -1175 -1178 0
-1182 1175 0
-1182 1175 0
-1182 1178 0
1183 -1176 -1176 -1173 0
-1183 1176 0
-1183 1176 0
-1183 1173 0
1184 -1178 -1177 -1175 0
-1184 1178 0
-1184 1177 0
-1184 1175 0
1185 -1171 -1180 -1171 0
-1185 1171 0
-1185 1180 0
-1185 1171 0
1186 -1180 -1179 -1172 0
-1186 1180 0
-1186 1179 0
-1186 1172 0
1187 -1173 -1172 -1175 0
-1187 1173 0
-1187 1172 0
-1187 1175 0
1188 -1178 -1174 -1171 0
-1188 1178 0
-1188 1174 0
-1188 1171 0
1189 -1177 -1173 -1176 0
-1189 1177 0
-1189 1173 0
-1189 1176 0
1190 -1176 -1175 -1180 0
-1190 1176 0
-1190 1175 0
-1190 1180 0
1191 -1184 -1190 -1181 0
-1191 1184 0
-1191 1190 0
-1191 1181 0
1192 -1189 -1187 -1190 0
-1192 1189 0
-1192 1187 0
-1192 1190 0
1193 -1187 -1183 -1184 0
-1193 1187 0
-1193 1183 0
-1193 1184 0
1194 -1183 -1186 -1182 0
-1194 1183 0
-1194 1186 0
-1194 1182 0
1195 -1186 -1185 -1181 0
-1195 1186 0
-1195 1185 0
-1195 1181 0
1196 -1187 -1181 -1184 0
-1196 1187 0
-1196 1181 0
-1196 1184 0
1197 -1183 -1187 -1190 0
-1197 1183 0
-1197 1187 0
-1197 1190 0
1198 -1185 -1189 -1183 0
-1198 1185 0
-1198 1189 0
-1198 1183 0
1199 -1186 -1184 -1190 0
-1199 1186 0
-1199 1184 0
-1199 1190 0
1200 -1187 -1190 -1186 0
-1200 1187 0
-1200 1190 0
-1200 1186 0
1201 -1198 -1200 -1192 0
-1201 1198 0
-1201 1200 0
-1201 1192 0
1202 -1198 -1193 -1197 0
-1202 1198 0
-1202 1193 0
-1202 1197 0
1203 -1191 -1194 -1198 0
-1203 1191 0
-1203 1194 0
-1203 1198 0
1204 -1191 -1198 -1199 0
-1204 1191 0
-1204 1198 0
-1204 1199 0
1205 -1192 -1192 -1191 0
-1205 1192 0
-1205 1192 0
-1205 1191 0
1206 -1198 -1197 -1194 0
-1206 1198 0
-1206 1197 0
-1206 1194 0
1207 -1192 -1199 -1191 0
-1207 1192 0
-1207 1199 0
-1207 1191 0
1208 -1198 -1195 -1199 0
-1208 1198 0
-1208 1195 0
-1208 1199 0
1209 -1191 -1197 -1194 0
-1209 1191 0
-1209 1197 0
-1209 1194 0
1210 -1198 -1199 -1194 0
-1210 1198 0
-1210 1199 0
-1210 1194 0
1211 -1209 -1210 -1201 0
-1211 1209 0
-1211 1210 0
-1211 1201 0
1212 -1210 -1201 -1208 0
-1212 1210 0
-1212 1201 0
-1212 1208 0
1213 -1201 -1206 -1209 0
-1213 1201 0
-1213 1206 0
-1213 1209 0
1214 -1208 -1201 -1203 0
-1214 1208 0
-1214 1201 0
-1214 1203 0
1215 -1205 -1202 -1202 0
-1215 1205 0
-1215 1202 0
-1215 1202 0
1216 -1210 -1209 -1208 0
-1216 1210 0
-1216 1209 0
-1216 1208 0
1217 -1201 -1204 -1201 0
-1217 1201 0
-1217 1204 0
-1217 1201 0
1218 -1203 -1205 -1202 0
-1218 1203 0
-1218 1205 0
-1218 1202 0
1219 -1203 -1210 -1204 0
-1219 1203 0
-1219 1210 0
-1219 1204 0
1220 -1210 -1210 -1206 0
-1220 1210 0
-1220 1210 0
-1220 1206 0
1221 -1220 -1220 -1215 0
-1221 1220 0
-1221 1220 0
-1221 1215 0
1222 -1214 -1217 -1215 0
-1222 1214 0
-1222 1217 0
-1222 1215 0
1223 -1211 -1213 -1217 0
-1223 1211 0
-1223 1213 0
-1223 1217 0
1224 -1214 -1216 -1219 0
-1224 1214 0
-1224 1216 0
-1224 1219 0
1225 -1217 -1217 -1218 0
-1225 1217 0
-1225 1217 0
-1225 1218 0
1226 -1219 -1220 -1212 0
-1226 1219 0
-1226 1220 0
-1226 1212 0
1227 -1216 -1217 -1215 0
-1227 1216 0
-1227 1217 0
-1227 1215 0
1228 -1211 -1217 -1220 0
-1228 1211 0
-1228 1217 0
-1228 1220 0
1229 -1212 -1215 -1220 0
-1229 1212 0
-1229 1215 0
-1229 1220 0
1230 -1218 -1217 -1213 0
-1230 1218 0
-1230 1217 0
-1230 1213 0
1231 -1224 -1224 -1230 0
-1231 1224 0
-1231 1224 0
-1231 1230 0
1232 -1221 -1222 -1227 0
-1232 1221 0
-1232 1222 0
-1232 1227 0
1233 -1230 -1225 -1221 0
-1233 1230 0
-1233 1225 0
-1233 1221 0
1234 -1228 -1227 -1227 0
-1234 1228 0
-1234 1227 0
-1234 1227 0
1235 -1229 -1228 -1225 0
-1235 1229 0
-1235 1228 0
-1235 1225 0
1236 -1230 -1228 -1224 0
-1236 1230 0
-1236 1228 0
-1236 1224 0
1237 -1221 -1223 -1223 0
-1237 1221 0
-1237 1223 0
-1237 1223 0
1238 -1224 -1228 -1222 0
-1238 1224 0
-1238 1228 0
-1238 1222 0
1239 -1226 -1225 -1228 0
-1239 1226 0
-1239 1225 0
-1239 1228 0
1240 -1224 -1225 -1222 0
-1240 1224 0
-1240 1225 0
-1240 1222 0
1241 -1232 -1240 -1238 0
-1241 1232 0
-1241 1240 0
-1241 1238 0
1242 -1240 -1237 -1236 0
-1242 1240 0
-1242 1237 0
-1242 1236 0
1243 -1239 -1240 -1231 0
-1243 1239 0
-1243 1240 0
-1243 1231 0
1244 -1238 -1231 -1240 0
-1244 1238 0
-1244 1231 0
-1244 1240 0
1245 -1236 -1238 -1235 0
-1245 1236 0
-1245 1238 0
-1245 1235 0
1246 -1236 -1232 -1232 0
-1246 1236 0
-1246 1232 0
-1246 1232 0
1247 -1239 -1234 -1236 0
-1247 1239 0
-1247 1234 0
-1247 1236 0
1248 -1231 -1231 -1240 0
-1248 1231 0
-1248 1231 0
-1248 1240 0
1249 -1236 -1233 -1236 0
-1249 1236 0
-1249 1233 0
-1249 1236 0
1250 -1238 -1238 -1237 0
-1250 1238 0
-1250 1238 0
-1250 1237 0
1251 -1247 -1242 -1243 0
-1251 1247 0
-1251 1242 0
-1251 1243 0
1252 -1246 -1248 -1243 0
-1252 1246 0
-1252 1248 0
-1252 1243 0
1253 -1244 -1248 -1244 0
-1253 1244 0
-1253 1248 0
-1253 1244 0
1254 -1244 -1245 -1249 0
-1254 1244 0
-1254 1245 0
-1254 1249 0
1255 -1250 -1248 -1249 0
-1255 1250 0
-1255 1248 0
-1255 1249 0
1256 -1245 -1245 -1241 0
-1256 1245 0
-1256 1245 0
-1256 1241 0
1257 -1247 -1248 -1244 0
-1257 1247 0
-1257 1248 0
-1257 1244 0
1258 -1249 -1248 -1244 0
-1258 1249 0
-1258 1248 0
-1258 1244 0
1259 -1244 -1245 -1246 0
-1259 1244 0
-1259 1245 0
-1259 1246 0
1260 -1248 -1250 -1241 0
-1260 1248 0
-1260 1250 0
-1260 1241 0
1261 -1259 -1253 -1259 0
-1261 1259 0
-1261 1253 0
-1261 1259 0
1262 -1257 -1260 -1254 0
-1262 1257 0
-1262 1260 0
-1262 1254 0
1263 -1258 -1252 -1251 0
-1263 1258 0
-1263 1252 0
-1263 1251 0
1264 -1253 -1254 -1259 0
-1264 1253 0
-1264 1254 0
-1264 1259 0
1265 -1252 -1256 -1253 0
-1265 1252 0
-1265 1256 0
-1265 1253 0
1266 -1257 -1260 -1260 0
-1266 1257 0
-1266 1260 0
-1266 1260 0
1267 -1254 -1260 -1260 0
-1267 1254 0
-1267 1260 0
-1267 1260 0
1268 -1260 -1251 -1258 0
-1268 1260 0
-1268 1251 0
-1268 1258 0
1269 -1253 -1253 -1257 0
-1269 1253 0
-1269 1253 0
-1269 1257 0
1270 -1259 -1253 -1251 0
-1270 1259 0
-1270 1253 0
-1270 1251 0
1271 -1263 -1269 -1269 0
-1271 1263 0
-1271 1269 0
-1271 1269 0
1272 -1262 -1267 -1268 0
-1272 1262 0
-1272 1267 0
-1272 1268 0
1273 -1268 -1265 -1270 0
-1273 1268 0
-1273 1265 0
-1273 1270 0
1274 -1267 -1270 -1264 0
-1274 1267 0
-1274 1270 0
-1274 1264 0
1275 -1269 -1268 -1267 0
-1275 1269 0
-1275 1268 0
-1275 1267 0
1276 -1265 -1264 -1263 0
-1276 1265 0
-1276 1264 0
-1276 1263 0
1277 -1270 -1263 -1266 0
-1277 1270 0
-1277 1263 0
-1277 1266 0
1278 -1265 -1268 -1261 0
-1278 1265 0
-1278 1268 0
-1278 1261 0
1279 -1266 -1268 -1261 0
-1279 1266 0
-1279 1268 0
-1279 1261 0
1280 -1265 -1266 -1261 0
-1280 1265 0
-1280 1266 0
-1280 1261 0
1281 -1273 -1276 -1274 0
-1281 1273 0
-1281 1276 0
-1281 1274 0
1282 -1275 -1275 -1277 0
-1282 1275 0
-1282 1275 0
-1282 1277 0
1283 -1274 -1278 -1275 0
-1283 1274 0
-1283 1278 0
-1283 1275 0
1284 -1278 -1274 -1277 0
-1284 1278 0
-1284 1274 0
-1284 1277 0
1285 -1280 -1272 -1279 0
-1285 1280 0
-1285 1272 0
-1285 1279 0
1286 -1274 -1275 -1271 0
-1286 1274 0
-1286 1275 0
-1286 1271 0
1287 -1278 -1271 -1277 0
-1287 1278 0
-1287 1271 0
-1287 1277 0
1288 -1271 -1279 -1278 0
-1288 1271 0
-1288 1279 0
-1288 1278 0
1289 -1275 -1274 -1275 0
-1289 1275 0
-1289 1274 0
-1289 1275 0
1290 -1276 -1271 -1273 0
-1290 1276 0
-1290 1271 0
-1290 1273 0
1291 -1289 -1287 -1284 0
-1291 1289 0
-1291 1287 0
-1291 1284 0
1292 -1283 -1287 -1288 0
-1292 1283 0
-1292 1287 0
-1292 1288 0
1293 -1284 -1290 -1285 0
-1293 1284 0
-1293 1290 0
-1293 1285 0
1294 -1287 -1287 -1288 0
-1294 1287 0
-1294 1287 0
-1294 1288 0
1295 -1289 -1281 -1289 0
-1295 1289 0
-1295 1281 0
-1295 1289 0
1296 -1284 -1289 -1287 0
-1296 1284 0
-1296 1289 0
-1296 1287 0
1297 -1289 -1281 -1286 0
-1297 1289 0
-1297 1281 0
-1297 1286 0
1298 -1286 -1288 -1282 0
-1298 1286 0
-1298 1288 0
-1298 1282 0
1299 -1282 -1285 -1281 0
-1299 1282 0
-1299 1285 0
-1299 1281 0
1300 -1281 -1284 -1290 0
-1300 1281 0
-1300 1284 0
-1300 1290 0
1301 -1298 -1299 -1299 0
-1301 1298 0
-1301 1299 0
-1301 1299 0
1302 -1294 -1298 -1294 0
-1302 1294 0
-1302 1298 0
-1302 1294 0
1303 -1292 -1294 -1295 0
-1303 1292 0
-1303 1294 0
-1303 1295 0
1304 -1295 -1299 -1295 0
-1304 1295 0
-1304 1299 0
-1304 1295 0
1305 -1293 -1294 -1300 0
-1305 1293 0
-1305 1294 0
-1305 1300 0
1306 -1300 -1300 -1293 0
-1306 1300 0
-1306 1300 0
-1306 1293 0
1307 -1294 -1293 -1293 0
-1307 1294 0
-1307 1293 0
-1307 1293 0
1308 -1299 -1300 -1296 0
-1308 1299 0
-1308 1300 0
-1308 1296 0
1309 -1296 -1294 -1295 0
-1309 1296 0
-1309 1294 0
-1309 1295 0
1310 -1294 -1291 -1293 0
-1310 1294 0
-1310 1291 0
-1310 1293 0
1311 -1306 -1305 -1304 0
-1311 1306 0
-1311 1305 0
-1311 1304 0
1312 -1308 -1305 -1306 0
-1312 1308 0
-1312 1305 0
-1312 1306 0
1313 -1303 -1303 -1308 0
-1313 1303 0
-1313 1303 0
-1313 1308 0
1314 -1302 -1304 -1302 0
-1314 1302 0
-1314 1304 0
-1314 1302 0
1315 -1306 -1303 -1302 0
-1315 1306 0
-1315 1303 0
-1315 1302 0
1316 -1303 -1308 -1303 0
-1316 1303 0
-1316 1308 0
-1316 1303 0
1317 -1301 -1301 -1309 0
-1317 1301 0
-1317 1301 0
-1317 1309 0
1318 -1309 -1306 -1304 0
-1318 1309 0
-1318 1306 0
-1318 1304 0
1319 -1308 -1308 -1303 0
-1319 1308 0
-1319 1308 0
-1319 1303 0
1320 -1310 -1305 -1308 0
-1320 1310 0
-1320 1305 0
-1320 1308 0
1321 -1311 -1316 -1313 0
-1321 1311 0
-1321 1316 0
-1321 1313 0
1322 -1314 -1320 -1312 0
-1322 1314 0
-1322 1320 0
-1322 1312 0
1323 -1318 -1313 -1313 0
-1323 1318 0
-1323 1313 0
-1323 1313 0
1324 -1312 -1319 -1313 0
-1324 1312 0
-1324 1319 0
-1324 1313 0
1325 -1312 -1316 -1316 0
-1325 1312 0
-1325 1316 0
-1325 1316 0
1326 -1313 -1319 -1311 0
-1326 1313 0
-1326 1319 0
-1326 1311 0
1327 -1311 -1312 -1315 0
-1327 1311 0
-1327 1312 0
-1327 1315 0
1328 -1318 -1313 -1318 0
-1328 1318 0
-1328 1313 0
-1328 1318 0
1329 -1319 -1318 -1315 0
-1329 1319 0
-1329 1318 0
-1329 1315 0
1330 -1311 -1320 -1319 0
-1330 1311 0
-1330 1320 0
-1330 1319 0
1331 -1323 -1329 -1329 0
-1331 1323 0
-1331 1329 0
-1331 1329 0
1332 -1327 -1324 -1322 0
-1332 1327 0
-1332 1324 0
-1332 1322 0
1333 -1322 -1327 -1327 0
-1333 1322 0
-1333 1327 0
-1333 1327 0
1334 -1326 -1330 -1321 0
-1334 1326 0
-1334 1330 0
-1334 1321 0
1335 -1328 -1324 -1321 0
-1335 1328 0
-1335 1324 0
-1335 1321 0
1336 -1324 -1324 -1328 0
-1336 1324 0
-1336 1324 0
-1336 1328 0
1337 -1327 -1329 -1323 0
-1337 1327 0
-1337 1329 0
-1337 1323 0
1338 -1322 -1323 -1330 0
-1338 1322 0
-1338 1323 0
-1338 1330 0
1339 -1329 -1327 -1327 0
-1339 1329 0
-1339 1327 0
-1339 1327 0
1340 -1321 -1323 -1325 0
-1340 1321 0
-1340 1323 0
-1340 1325 0
1341 -1336 -1337 -1334 0
-1341 1336 0
-1341 1337 0
-1341 1334 0
1342 -1336 -1331 -1336 0
-1342 1336 0
-1342 1331 0
-1342 1336 0
1343 -1337 -1331 -1331 0
-1343 1337 0
-1343 1331 0
-1343 1331 0
1344 -1335 -1335 -1337 0
-1344 1335 0
-1344 1335 0
-1344 1337 0
1345 -1332 -1333 -1338 0
-1345 1332 0
-1345 1333 0
-1345 1338 0
1346 -1337 -1337 -1340 0
-1346 1337 0
-1346 1337 0
-1346 1340 0
1347 -1335 -1340 -1339 0
-1347 1335 0
-1347 1340 0
-1347 1339 0
1348 -1335 -1331 -1336 0
-1348 1335 0
-1348 1331 0
-1348 1336 0
1349 -1335 -1332 -1340 0
-1349 1335 0
-1349 1332 0
-1349 1340 0
1350 -1331 -1336 -1340 0
-1350 1331 0
-1350 1336 0
-1350 1340 0
1351 -1344 -1345 -1343 0
-1351 1344 0
-1351 1345 0
-1351 1343 0
1352 -1348 -1342 -1346 0
-1352 1348 0
-1352 1342 0
-1352 1346 0
1353 -1348 -1350 -1346 0
-1353 1348 0
-1353 1350 0
-1353 1346 0
1354 -1346 -1342 -1346 0
-1354 1346 0
-1354 1342 0
-1354 1346 0
1355 -1350 -1342 -1346 0
-1355 1350 0
-1355 1342 0
-1355 1346 0
1356 -1348 -1342 -1345 0
-1356 1348 0
-1356 1342 0
-1356 1345 0
1357 -1342 -1344 -1342 0
-1357 1342 0
-1357 1344 0
-1357 1342 0
1358 -1350 -1348 -1341 0
-1358 1350 0
-1358 1348 0
-1358 1341 0
1359 -1344 -1344 -1343 0
-1359 1344 0
-1359 1344 0
-1359 1343 0
1360 -1343 -1341 -1347 0
-1360 1343 0
-1360 1341 0
-1360 1347 0
1361 -1351 -1359 -1354 0
-1361 1351 0
-1361 1359 0
-1361 1354 0
1362 -1359 -1358 -1354 0
-1362 1359 0
-1362 1358 0
-1362 1354 0
1363 -1357 -1356 -1353 0
-1363 1357 0
-1363 1356 0
-1363 1353 0
1364 -1359 -1358 -1354 0
-1364 1359 0
-1364 1358 0
-1364 1354 0
1365 -1353 -1352 -1352 0
-1365 1353 0
-1365 1352 0
-1365 1352 0
1366 -1351 -1354 -1354 0
-1366 1351 0
-1366 1354 0
-1366 1354 0
1367 -1358 -1353 -1353 0
-1367 1358 0
-1367 1353 0
-1367 1353 0
1368 -1351 -1353 -1351 0
-1368 1351 0
-1368 1353 0
-1368 1351 0
1369 -1354 -1352 -1352 0
-1369 1354 0
-1369 1352 0
-1369 1352 0
1370 -1359 -1354 -1355 0
-1370 1359 0
-1370 1354 0
-1370 1355 0
1371 -1368 -1361 -1363 0
-1371 1368 0
-1371 1361 0
-1371 1363 0
1372 -1365 -1362 -1363 0
-1372 1365 0
-1372 1362 0
-1372 1363 0
1373 -1365 -1368 -1361 0
-1373 1365 0
-1373 1368 0
-1373 1361 0
1374 -1362 -1367 -1366 0
-1374 1362 0
-1374 1367 0
-1374 1366 0
1375 -1368 -1367 -1365 0
-1375 1368 0
-1375 1367 0
-1375 1365 0
1376 -1364 -1368 -1362 0
-1376 1364 0
-1376 1368 0
-1376 1362 0
1377 -1365 -1370 -1366 0
-1377 1365 0
-1377 1370 0
-1377 1366 0
1378 -1363 -1366 -1365 0
-1378 1363 0
-1378 1366 0
-1378 1365 0
1379 -1362 -1366 -1365 0
-1379 1362 0
-1379 1366 0
-1379 1365 0
1380 -1370 -1365 -1365 0
-1380 1370 0
-1380 1365 0
-1380 1365 0
1381 -1373 -1376 -1377 0
-1381 1373 0
-1381 1376 0
-1381 1377 0
1382 -1371 -1378 -1379 0
-1382 1371 0
-1382 1378 0
-1382 1379 0
1383 -1378 -1373 -1375 0
-1383 1378 0
-1383 1373 0
-1383 1375 0
1384 -1376 -1373 -1374 0
-1384 1376 0
-1384 1373 0
-1384 1374 0
1385 -1372 -1380 -1374 0
-1385 1372 0
-1385 1380 0
-1385 1374 0
1386 -1376 -1376 -1379 0
-1386 1376 0
-1386 1376 0
-1386 1379 0
1387 -1380 -1376 -1373 0
-1387 1380 0
-1387 1376 0
-1387 1373 0
1388 -1379 -1371 -1376 0
-1388 1379 0
-1388 1371 0
-1388 1376 0
1389 -1374 -1379 -1377 0
-1389 1374 0
-1389 1379 0
-1389 1377 0
1390 -1373 -1376 -1375 0
-1390 1373 0
-1390 1376 0
-1390 1375 0
1391 -1384 -1384 -1382 0
-1391 1384 0
-1391 1384 0
-1391 1382 0
1392 -1386 -1388 -1382 0
-1392 1386 0
-1392 1388 0
-1392 1382 0
1393 -1383 -1386 -1381 0
-1393 1383 0
-1393 1386 0
-1393 1381 0
1394 -1385 -1387 -1382 0
-1394 1385 0
-1394 1387 0
-1394 1382 0
1395 -1385 -1383 -1388 0
-1395 1385 0
-1395 1383 0
-1395 1388 0
1396 -1387 -1384 -1390 0
-1396 1387 0
-1396 1384 0
-1396 1390 0
1397 -1386 -1384 -1381 0
-1397 1386 0
-1397 1384 0
-1397 1381 0
1398 -1390 -1388 -1390 0
-1398 1390 0
-1398 1388 0
-1398 1390 0
1399 -1385 -1389 -1388 0
-1399 1385 0
-1399 1389 0
-1399 1388 0
1400 -1384 -1388 -1388 0
-1400 1384 0
-1400 1388 0
-1400 1388 0
1401 -1394 -1391 -1398 0
-1401 1394 0
-1401 1391 0
-1401 1398 0
1402 -1399 -1400 -1394 0
-1402 1399 0
-1402 1400 0
-1402 1394 0
1403 -1392 -1394 -1400 0
-1403 1392 0
-1403 1394 0
-1403 1400 0
1404 -1394 -1393 -1398 0
-1404 1394 0
-1404 1393 0
-1404 1398 0
1405 -1397 -1399 -1392 0
-1405 1397 0
-1405 1399 0
-1405 1392 0
1406 -1400 -1396 -1392 0
-1406 1400 0
-1406 1396 0
-1406 1392 0
1407 -1398 -1399 -1400 0
-1407 1398 0
-1407 1399 0
-1407 1400 0
1408 -1396 -1391 -1397 0
-1408 1396 0
-1408 1391 0
-1408 1397 0
1409 -1394 -1397 -1399 0
-1409 1394 0
-1409 1397 0
-1409 1399 0
1410 -1397 -1398 -1395 0
-1410 1397 0
-1410 1398 0
-1410 1395 0
1411 -1405 -1410 -1402 0
-1411 1405 0
-1411 1410 0
-1411 1402 0
1412 -1410 -1403 -1410 0
-1412 1410 0
-1412 1403 0
-1412 1410 0
1413 -1406 -1408 -1404 0
-1413 1406 0
-1413 1408 0
-1413 1404 0
1414 -1406 -1406 -1407 0
-1414 1406 0
-1414 1406 0
-1414 1407 0
1415 -1405 -1410 -1406 0
-1415 1405 0
-1415 1410 0
-1415 1406 0
1416 -1407 -1402 -1410 0
-1416 1407 0
-1416 1402 0
-1416 1410 0
1417 -1407 -1410 -1410 0
-1417 1407 0
-1417 1410 0
-1417 1410 0
1418 -1401 -1405 -1410 0
-1418 1401 0
-1418 1405 0
-1418 1410 0
1419 -1405 -1404 -1410 0
-1419 1405 0
-1419 1404 0
-1419 1410 0
1420 -1402 -1407 -1409 0
-1420 1402 0
-1420 1407 0
-1420 1409 0
1421 -1414 -1416 -1417 0
-1421 1414 0
-1421 1416 0
-1421 1417 0
1422 -1415 -1420 -1418 0
-1422 1415 0
-1422 1420 0
-1422 1418 0
1423 -1412 -1411 -1418 0
-1423 1412 0
-1423 1411 0
-1423 1418 0
1424 -1414 -1416 -1416 0
-1424 1414 0
-1424 1416 0
-1424 1416 0
1425 -1416 -1419 -1416 0
-1425 1416 0
-1425 1419 0
-1425 1416 0
1426 -1418 -1415 -1415 0
-1426 1418 0
-1426 1415 0
-1426 1415 0
1427 -1416 -1411 -1414 0
-1427 1416 0
-1427 1411 0
-1427 1414 0
1428 -1411 -1415 -1420 0
-1428 1411 0
-1428 1415 0
-1428 1420 0
1429 -1411 -1412 -1411 0
-1429 1411 0
-1429 1412 0
-1429 1411 0
1430 -1415 -1420 -1418 0
-1430 1415 0
-1430 1420 0
-1430 1418 0
1431 -1426 -1421 -1429 0
-1431 1426 0
-1431 1421 0
-1431 1429 0
1432 -1422 -1421 -1427 0
-1432 1422 0
-1432 1421 0
-1432 1427 0
1433 -1425 -1423 -1430 0
-1433 1425 0
-1433 1423 0
-1433 1430 0
1434 -1424 -1423 -1425 0
-1434 1424 0
-1434 1423 0
-1434 1425 0
1435 -1423 -1424 -1429 0
-1435 1423 0
-1435 1424 0
-1435 1429 0
1436 -1422 -1427 -1430 0
-1436 1422 0
-1436 1427 0
-1436 1430 0
1437 -1428 -1421 -1427 0
-1437 1428 0
-1437 1421 0
-1437 1427 0
1438 -1426 -1424 -1427 0
-1438 1426 0
-1438 1424 0
-1438 1427 0
1439 -1424 -1423 -1421 0
-1439 1424 0
-1439 1423 0
-1439 1421 0
1440 -1422 -1422 -1429 0
-1440 1422 0
-1440 1422 0
-1440 1429 0
1441 -1435 -1437 -1437 0
-1441 1435 0
-1441 1437 0
-1441 1437 0
1442 -1437 -1434 -1437 0
-1442 1437 0
-1442 1434 0
-1442 1437 0
1443 -1436 -1433 -1435 0
-1443 1436 0
-1443 1433 0
-1443 1435 0
1444 -1438 -1433 -1440 0
-1444 1438 0
-1444 1433 0
-1444 1440 0
1445 -1431 -1436 -1435 0
-1445 1431 0
-1445 1436 0
-1445 1435 0
1446 -1432 -1432 -1433 0
-1446 1432 0
-1446 1432 0
-1446 1433 0
1447 -1440 -1437 -1432 0
-1447 1440 0
-1447 1437 0
-1447 1432 0
1448 -1434 -1434 -1438 0
-1448 1434 0
-1448 1434 0
-1448 1438 0
1449 -1434 -1433 -1432 0
-1449 1434 0
-1449 1433 0
-1449 1432 0
1450 -1440 -1434 -1434 0
-1450 1440 0
-1450 1434 0
-1450 1434 0
1451 -1449 -1448 -1449 0
-1451 1449 0
-1451 1448 0
-1451 1449 0
1452 -1446 -1442 -1441 0
-1452 1446 0
-1452 1442 0
-1452 1441 0
1453 -1443 -1446 -1447 0
-1453 1443 0
-1453 1446 0
-1453 1447 0
1454 -1445 -1449 -1442 0
-1454 1445 0
-1454 1449 0
-1454 1442 0
1455 -1450 -1445 -1445 0
-1455 1450 0
-1455 1445 0
-1455 1445 0
1456 -1444 -1447 -1441 0
-1456 1444 0
-1456 1447 0
-1456 1441 0
1457 -1446 -1441 -1445 0
-1457 1446 0
-1457 1441 0
-1457 1445 0
1458 -1441 -1449 -1448 0
-1458 1441 0
-1458 1449 0
-1458 1448 0
1459 -1450 -1442 -1442 0
-1459 1450 0
-1459 1442 0
-1459 1442 0
1460 -1443 -1443 -1443 0
-1460 1443 0
-1460 1443 0
-1460 1443 0
1461 -1455 -1453 -1451 0
-1461 1455 0
-1461 1453 0
-1461 1451 0
1462 -1459 -1455 -1458 0
-1462 1459 0
-1462 1455 0
-1462 1458 0
1463 -1451 -1454 -1453 0
-1463 1451 0
-1463 1454 0
-1463 1453 0
1464 -1458 -1453 -1457 0
-1464 1458 0
-1464 1453 0
-1464 1457 0
1465 -1455 -1451 -1451 0
-1465 1455 0
-1465 1451 0
-1465 1451 0
1466 -1456 -1456 -1458 0
-1466 1456 0
-1466 1456 0
-1466 1458 0
1467 -1455 -1452 -1459 0
-1467 1455 0
-1467 1452 0
-1467 1459 0
1468 -1451 -1460 -1457 0
-1468 1451 0
-1468 1460 0
-1468 1457 0
1469 -1452 -1456 -1460 0
-1469 1452 0
-1469 1456 0
-1469 1460 0
1470 -1452 -1454 -1459 0
-1470 1452 0
-1470 1454 0
-1470 1459 0
1471 -1464 -1464 -1462 0
-1471 1464 0
-1471 1464 0
-1471 1462 0
1472 -1464 -1469 -1469 0
-1472 1464 0
-1472 1469 0
-1472 1469 0
1473 -1469 -1461 -1464 0
-1473 1469 0
-1473 1461 0
-1473 1464 0
1474 -1467 -1463 -1462 0
-1474 1467 0
-1474 1463 0
-1474 1462 0
1475 -1464 -1468 -1466 0
-1475 1464 0
-1475 1468 0
-1475 1466 0
1476 -1464 -1467 -1461 0
-1476 1464 0
-1476 1467 0
-1476 1461 0
1477 -1464 -1466 -1464 0
-1477 1464 0
-1477 1466 0
-1477 1464 0
1478 -1463 -1466 -1464 0
-1478 1463 0
-1478 1466 0
-1478 1464 0
1479 -1462 -1463 -1461 0
-1479 1462 0
-1479 1463 0
-1479 1461 0
1480 -1469 -1464 -1465 0
-1480 1469 0
-1480 1464 0
-1480 1465 0
1481 -1471 -1478 -1473 0
-1481 1471 0
-1481 1478 0
-1481 1473 0
1482 -1476 -1472 -1480 0
-1482 1476 0
-1482 1472 0
-1482 1480 0
1483 -1478 -1479 -1474 0
-1483 1478 0
-1483 1479 0
-1483 1474 0
1484 -1471 -1473 -1479 0
-1484 1471 0
-1484 1473 0
-1484 1479 0
1485 -1475 -1473 -1471 0
-1485 1475 0
-1485 1473 0
-1485 1471 0
1486 -1479 -1471 -1475 0
-1486 1479 0
-1486 1471 0
-1486 1475 0
1487 -1477 -1475 -1475 0
-1487 1477 0
-1487 1475 0
-1487 1475 0
1488 -1473 -1475 -1471 0
-1488 1473 0
-1488 1475 0
-1488 1471 0
1489 -1479 -1480 -1478 0
-1489 1479 0
-1489 1480 0
-1489 1478 0
1490 -1477 -1475 -1476 0
-1490 1477 0
-1490 1475 0
-1490 1476 0
1491 -1486 -1486 -1488 0
-1491 1486 0
-1491 1486 0
-1491 1488 0
1492 -1488 -1487 -1481 0
-1492 1488 0
-1492 1487 0
-1492 1481 0
1493 -1482 -1483 -1481 0
-1493 1482 0
-1493 1483 0
-1493 1481 0
1494 -1481 -1489 -1484 0
-1494 1481 0
-1494 1489 0
-1494 1484 0
1495 -1482 -1486 -1489 0
-1495 1482 0
-1495 1486 0
-1495 1489 0
1496 -1489 -1487 -1482 0
-1496 1489 0
-1496 1487 0
-1496 1482 0
1497 -1489 -1490 -1489 0
-1497 1489 0
-1497 1490 0
-1497 1489 0
1498 -1489 -1488 -1483 0
-1498 1489 0
-1498 1488 0
-1498 1483 0
1499 -1482 -1490 -1487 0
-1499 1482 0
-1499 1490 0
-1499 1487 0
1500 -1488 -1483 -1483 0
-1500 1488 0
-1500 1483 0
-1500 1483 0
1501 -1499 -1495 -1497 0
-1501 1499 0
-1501 1495 0
-1501 1497 0
1502 -1493 -1500 -1493 0
-1502 1493 0
-1502 1500 0
-1502 1493 0
1503 -1494 -1492 -1494 0
-1503 1494 0
-1503 1492 0
-1503 1494 0
1504 -1491 -1497 -1494 0
-1504 1491 0
-1504 1497 0
-1504 1494 0
1505 -1493 -1498 -1500 0
-1505 1493 0
-1505 1498 0
-1505 1500 0
1506 -1493 -1492 -1493 0
-1506 1493 0
-1506 1492 0
-1506 1493 0
1507 -1496 -1493 -1493 0
-1507 1496 0
-1507 1493 0
-1507 1493 0
1508 -1499 -1499 -1500 0
-1508 1499 0
-1508 1499 0
-1508 1500 0
1509 -1492 -1498 -1500 0
-1509 1492 0
-1509 1498 0
-1509 1500 0
1510 -1499 -1496 -1495 0
-1510 1499 0
-1510 1496 0
-1510 1495 0
1511 -1506 -1501 -1509 0
-1511 1506 0
-1511 1501 0
-1511 1509 0
1512 -1503 -1502 -1509 0
-1512 1503 0
-1512 1502 0
-1512 1509 0
1513 -1502 -1506 -1508 0
-1513 1502 0
-1513 1506 0
-1513 1508 0
1514 -1504 -1508 -1501 0
-1514 1504 0
-1514 1508 0
-1514 1501 0
1515 -1506 -1504 -1510 0
-1515 1506 0
-1515 1504 0
-1515 1510 0
1516 -1505 -1502 -1510 0
-1516 1505 0
-1516 1502 0
-1516 1510 0
1517 -1508 -1502 -1507 0
-1517 1508 0
-1517 1502 0
-1517 1507 0
1518 -1502 -1504 -1505 0
-1518 1502 0
-1518 1504 0
-1518 1505 0
1519 -1507 -1505 -1503 0
-1519 1507 0
-1519 1505 0
-1519 1503 0
1520 -1507 -1509 -1509 0
-1520 1507 0
-1520 1509 0
-1520 1509 0
1521 -1515 -1513 -1520 0
-1521 1515 0
-1521 1513 0
-1521 1520 0
1522 -1511 -1511 -1517 0
-1522 1511 0
-1522 1511 0
-1522 1517 0
1523 -1517 -1516 -1516 0
-1523 1517 0
-1523 1516 0
-1523 1516 0
1524 -1520 -1517 -1518 0
-1524 1520 0
-1524 1517 0
-1524 1518 0
1525 -1515 -1517 -1518 0
-1525 1515 0
-1525 1517 0
-1525 1518 0
1526 -1520 -1517 -1519 0
-1526 1520 0
-1526 1517 0
-1526 1519 0
1527 -1520 -1514 -1520 0
-1527 1520 0
-1527 1514 0
-1527 1520 0
1528 -1513 -1520 -1518 0
-1528 1513 0
-1528 1520 0
-1528 1518 0
1529 -1516 -1515 -1512 0
-1529 1516 0
-1529 1515 0
-1529 1512 0
1530 -1517 -1520 -1511 0
-1530 1517 0
-1530 1520 0
-1530 1511 0
1531 -1529 -1530 -1523 0
-1531 1529 0
-1531 1530 0
-1531 1523 0
1532 -1529 -1521 -1526 0
-1532 1529 0
-1532 1521 0
-1532 1526 0
1533 -1522 -1522 -1522 0
-1533 1522 0
-1533 1522 0
-1533 1522 0
1534 -1522 -1523 -1530 0
-1534 1522 0
-1534 1523 0
-1534 1530 0
1535 -1523 -1528 -1525 0
-1535 1523 0
-1535 1528 0
-1535 1525 0
1536 -1528 -1524 -1527 0
-1536 1528 0
-1536 1524 0
-1536 1527 0
1537 -1530 -1529 -1526 0
-1537 1530 0
-1537 1529 0
-1537 1526 0
1538 -1528 -1524 -1522 0
-1538 1528 0
-1538 1524 0
-1538 1522 0
1539 -1530 -1527 -1525 0
-1539 1530 0
-1539 1527 0
-1539 1525 0
1540 -1524 -1527 -1523 0
-1540 1524 0
-1540 1527 0
-1540 1523 0
1541 -1536 -1536 -1538 0
-1541 1536 0
-1541 1536 0
-1541 1538 0
1542 -1538 -1537 -1536 0
-1542 1538 0
-1542 1537 0
-1542 1536 0
1543 -1534 -1533 -1540 0
-1543 1534 0
-1543 1533 0
-1543 1540 0
1544 -1538 -1532 -1540 0
-1544 1538 0
-1544 1532 0
-1544 1540 0
1545 -1534 -1539 -1534 0
-1545 1534 0
-1545 1539 0
-1545 1534 0
1546 -1538 -1531 -1533 0
-1546 1538 0
-1546 1531 0
-1546 1533 0
1547 -1537 -1533 -1533 0
-1547 1537 0
-1547 1533 0
-1547 1533 0
1548 -1533 -1533 -1536 0
-1548 1533 0
-1548 1533 0
-1548 1536 0
1549 -1533 -1538 -1534 0
-1549 1533 0
-1549 1538 0
-1549 1534 0
1550 -1535 -1538 -1532 0
-1550 1535 0
-1550 1538 0
-1550 1532 0
1551 -1548 -1541 -1544 0
-1551 1548 0
-1551 1541 0
-1551 1544 0
1552 -1549 -1544 -1550 0
-1552 1549 0
-1552 1544 0
-1552 1550 0
1553 -1548 -1546 -1548 0
-1553 1548 0
-1553 1546 0
-1553 1548 0
1554 -1550 -1550 -1545 0
-1554 1550 0
-1554 1550 0
-1554 1545 0
1555 -1545 -1546 -1542 0
-1555 1545 0
-1555 1546 0
-1555 1542 0
1556 -1550 -1542 -1542 0
-1556 1550 0
-1556 1542 0
-1556 1542 0
1557 -1549 -1549 -1543 0
-1557 1549 0
-1557 1549 0
-1557 1543 0
1558 -1543 -1546 -1543 0
-1558 1543 0
-1558 1546 0
-1558 1543 0
1559 -1541 -1547 -1542 0
-1559 1541 0
-1559 1547 0
-1559 1542 0
1560 -1543 -1546 -1546 0
-1560 1543 0
-1560 1546 0
-1560 1546 0
1561 -1558 -1552 -1552 0
-1561 1558 0
-1561 1552 0
-1561 1552 0
1562 -1557 -1556 -1557 0
-1562 1557 0
-1562 1556 0
-1562 1557 0
1563 -1553 -1551 -1556 0
-1563 1553 0
-1563 1551 0
-1563 1556 0
1564 -1552 -1558 -1553 0
-1564 1552 0
-1564 1558 0
-1564 1553 0
1565 -1556 -1559 -1554 0
-1565 1556 0
-1565 1559 0
-1565 1554 0
1566 -1558 -1556 -1559 0
-1566 1558 0
-1566 1556 0
-1566 1559 0
1567 -1554 -1558 -1558 0
-1567 1554 0
-1567 1558 0
-1567 1558 0
1568 -1554 -1559 -1560 0
-1568 1554 0
-1568 1559 0
-1568 1560 0
1569 -1556 -1557 -1556 0
-1569 1556 0
-1569 1557 0
-1569 1556 0
1570 -1556 -1560 -1553 0
-1570 1556 0
-1570 1560 0
-1570 1553 0
1571 -1561 -1570 -1563 0
-1571 1561 0
-1571 1570 0
-1571 1563 0
1572 -1565 -1565 -1562 0
-1572 1565 0
-1572 1565 0
-1572 1562 0
1573 -1566 -1566 -1565 0
-1573 1566 0
-1573 1566 0
-1573 1565 0
1574 -1561 -1563 -1570 0
-1574 1561 0
-1574 1563 0
-1574 1570 0
1575 -1566 -1564 -1567 0
-1575 1566 0
-1575 1564 0
-1575 1567 0
1576 -1563 -1568 -1562 0
-1576 1563 0
-1576 1568 0
-1576 1562 0
1577 -1567 -1565 -1563 0
-1577 1567 0
-1577 1565 0
-1577 1563 0
1578 -1569 -1567 -1568 0
-1578 1569 0
-1578 1567 0
-1578 1568 0
1579 -1562 -1564 -1561 0
-1579 1562 0
-1579 1564 0
-1579 1561 0
1580 -1561 -1570 -1563 0
-1580 1561 0
-1580 1570 0
-1580 1563 0
1581 -1577 -1572 -1576 0
-1581 1577 0
-1581 1572 0
-1581 1576 0
1582 -1576 -1572 -1574 0
-1582 1576 0
-1582 1572 0
-1582 1574 0
1583 -1577 -1579 -1575 0
-1583 1577 0
-1583 1579 0
-1583 1575 0
1584 -1575 -1578 -1579 0
-1584 1575 0
-1584 1578 0
-1584 1579 0
1585 -1571 -1574 -1576 0
-1585 1571 0
-1585 1574 0
-1585 1576 0
1586 -1576 -1572 -1572 0
-1586 1576 0
-1586 1572 0
-1586 1572 0
1587 -1573 -1577 -1574 0
-1587 1573 0
-1587 1577 0
-1587 1574 0
1588 -1574 -1578 -1572 0
-1588 1574 0
-1588 1578 0
-1588 1572 0
1589 -1575 -1576 -1576 0
-1589 1575 0
-1589 1576 0
-1589 1576 0
1590 -1572 -1576 -1576 0
-1590 1572 0
-1590 1576 0
-1590 1576 0
1591 -1585 -1585 -1585 0
-1591 1585 0
-1591 1585 0
-1591 1585 0
1592 -1583 -1588 -1582 0
-1592 1583 0
-1592 1588 0
-1592 1582 0
1593 -1581 -1587 -1589 0
-1593 1581 0
-1593 1587 0
-1593 1589 0
1594 -1590 -1581 -1587 0
-1594 1590 0
-1594 1581 0
-1594 1587 0
1595 -1582 -1588 -1582 0
-1595 1582 0
-1595 1588 0
-1595 1582 0
1596 -1589 -1583 -1584 0
-1596 1589 0
-1596 1583 0
-1596 1584 0
1597 -1586 -1589 -1588 0
-1597 1586 0
-1597 1589 0
-1597 1588 0
1598 -1590 -1583 -1590 0
-1598 1590 0
-1598 1583 0
-1598 1590 0
1599 -1581 -1585 -1584 0
-1599 1581 0
-1599 1585 0
-1599 1584 0
1600 -1589 -1588 -1585 0
-1600 1589 0
-1600 1588 0
-1600 1585 0
1601 -1598 -1591 -1593 0
-1601 1598 0
-1601 1591 0
-1601 1593 0
1602 -1597 -1595 -1597 0
-1602 1597 0
-1602 1595 0
-1602 1597 0
1603 -1593 -1596 -1600 0
-1603 1593 0
-1603 1596 0
-1603 1600 0
1604 -1594 -1596 -1597 0
-1604 1594 0
-1604 1596 0
-1604 1597 0
1605 -1597 -1599 -1595 0
-1605 1597 0
-1605 1599 0
-1605 1595 0
1606 -1597 -1591 -1599 0
-1606 1597 0
-1606 1591 0
-1606 1599 0
1607 -1596 -1595 -1592 0
-1607 1596 0
-1607 1595 0
-1607 1592 0
1608 -1599 -1596 -1593 0
-1608 1599 0
-1608 1596 0
-1608 1593 0
1609 -1598 -1598 -1597 0
-1609 1598 0
-1609 1598 0
-1609 1597 0
1610 -1596 -1592 -1600 0
-1610 1596 0
-1610 1592 0
-1610 1600 0
1611 -1608 -1607 -1609 0
-1611 1608 0
-1611 1607 0
-1611 1609 0
1612 -1601 -1602 -1608 0
-1612 1601 0
-1612 1602 0
-1612 1608 0
1613 -1607 -1603 -1602 0
-1613 1607 0
-1613 1603 0
-1613 1602 0
1614 -1608 -1608 -1610 0
-1614 1608 0
-1614 1608 0
-1614 1610 0
1615 -1610 -1609 -1605 0
-1615 1610 0
-1615 1609 0
-1615 1605 0
1616 -1603 -1608 -1608 0
-1616 1603 0
-1616 1608 0
-1616 1608 0
1617 -1609 -1607 -1608 0
-1617 1609 0
-1617 1607 0
-1617 1608 0
1618 -1609 -1602 -1605 0
-1618 1609 0
-1618 1602 0
-1618 1605 0
1619 -1606 -1606 -1601 0
-1619 1606 0
-1619 1606 0
-1619 1601 0
1620 -1601 -1610 -1609 0
-1620 1601 0
-1620 1610 0
-1620 1609 0
1621 -1612 -1620 -1616 0
-1621 1612 0
-1621 1620 0
-1621 1616 0
1622 -1611 -1614 -1611 0
-1622 1611 0
-1622 1614 0
-1622 1611 0
1623 -1615 -1616 -1619 0
-1623 1615 0
-1623 1616 0
-1623 1619 0
1624 -1611 -1614 -1620 0
-1624 1611 0
-1624 1614 0
-1624 1620 0
1625 -1613 -1616 -1614 0
-1625 1613 0
-1625 1616 0
-1625 1614 0
1626 -1615 -1618 -1619 0
-1626 1615 0
-1626 1618 0
-1626 1619 0
1627 -1616 -1616 -1617 0
-1627 1616 0
-1627 1616 0
-1627 1617 0
1628 -1613 -1613 -1619 0
-1628 1613 0
-1628 1613 0
-1628 1619 0
1629 -1616 -1614 -1611 0
-1629 1616 0
-1629 1614 0
-1629 1611 0
1630 -1615 -1613 -1614 0
-1630 1615 0
-1630 1613 0
-1630 1614 0
1631 -1623 -1625 -1625 0
-1631 1623 0
-1631 1625 0
-1631 1625 0
1632 -1626 -1624 -1630 0
-1632 1626 0
-1632 1624 0
-1632 1630 0
1633 -1624 -1621 -1628 0
-1633 1624 0
-1633 1621 0
-1633 1628 0
1634 -1626 -1622 -1626 0
-1634 1626 0
-1634 1622 0
-1634 1626 0
1635 -1623 -1624 -1630 0
-1635 1623 0
-1635 1624 0
-1635 1630 0
1636 -1623 -1625 -1625 0
-1636 1623 0
-1636 1625 0
-1636 1625 0
1637 -1623 -1621 -1625 0
-1637 1623 0
-1637 1621 0
-1637 1625 0
1638 -1628 -1621 -1626 0
-1638 1628 0
-1638 1621 0
-1638 1626 0
1639 -1621 -1623 -1627 0
-1639 1621 0
-1639 1623 0
-1639 1627 0
1640 -1624 -1624 -1627 0
-1640 1624 0
-1640 1624 0
-1640 1627 0
1641 -1634 -1637 -1639 0
-1641 1634 0
-1641 1637 0
-1641 1639 0
1642 -1638 -1635 -1635 0
-1642 1638 0
-1642 1635 0
-1642 1635 0
1643 -1639 -1639 -1635 0
-1643 1639 0
-1643 1639 0
-1643 1635 0
1644 -1631 -1637 -1634 0
-1644 1631 0
-1644 1637 0
-1644 1634 0
1645 -1631 -1634 -1634 0
-1645 1631 0
-1645 1634 0
-1645 1634 0
1646 -1636 -1636 -1633 0
-1646 1636 0
-1646 1636 0
-1646 1633 0
1647 -1634 -1634 -1631 0
-1647 1634 0
-1647 1634 0
-1647 1631 0
1648 -1639 -1640 -1639 0
-1648 1639 0
-1648 1640 0
-1648 1639 0
1649 -1639 -1640 -1638 0
-1649 1639 0
-1649 1640 0
-1649 1638 0
1650 -1637 -1632 -1633 0
-1650 1637 0
-1650 1632 0
-1650 1633 0
1651 -1645 -1646 -1645 0
-1651 1645 0
-1651 1646 0
-1651 1645 0
1652 -1647 -1642 -1641 0
-1652 1647 0
-1652 1642 0
-1652 1641 0
1653 -1644 -1644 -1647 0
-1653 1644 0
-1653 1644 0
-1653 1647 0
1654 -1644 -1645 -1647 0
-1654 1644 0
-1654 1645 0
-1654 1647 0
1655 -1650 -1646 -1645 0
-1655 1650 0
-1655 1646 0
-1655 1645 0
1656 -1650 -1648 -1647 0
-1656 1650 0
-1656 1648 0
-1656 1647 0
1657 -1649 -1643 -1648 0
-1657 1649 0
-1657 1643 0
-1657 1648 0
1658 -1649 -1643 -1647 0
-1658 1649 0
-1658 1643 0
-1658 1647 0
1659 -1646 -1645 -1647 0
-1659 1646 0
-1659 1645 0
-1659 1647 0
1660 -1650 -1641 -1647 0
-1660 1650 0
-1660 1641 0
-1660 1647 0
1661 -1658 -1651 -1658 0
-1661 1658 0
-1661 1651 0
-1661 1658 0
1662 -1656 -1660 -1655 0
-1662 1656 0
-1662 1660 0
-1662 1655 0
1663 -1659 -1655 -1652 0
-1663 1659 0
-1663 1655 0
-1663 1652 0
1664 -1660 -1652 -1656 0
-1664 1660 0
-1664 1652 0
-1664 1656 0
1665 -1660 -1655 -1651 0
-1665 1660 0
-1665 1655 0
-1665 1651 0
1666 -1652 -1660 -1654 0
-1666 1652 0
-1666 1660 0
-1666 1654 0
1667 -1660 -1652 -1655 0
-1667 1660 0
-1667 1652 0
-1667 1655 0
1668 -1652 -1652 -1653 0
-1668 1652 0
-1668 1652 0
-1668 1653 0
1669 -1652 -1656 -1659 0
-1669 1652 0
-1669 1656 0
-1669 1659 0
1670 -1654 -1660 -1658 0
-1670 1654 0
-1670 1660 0
-1670 1658 0
1671 -1661 -1667 -1669 0
-1671 1661 0
-1671 1667 0
-1671 1669 0
1672 -1667 -1669 -1667 0
-1672 1667 0
-1672 1669 0
-1672 1667 0
1673 -1668 -1666 -1664 0
-1673 1668 0
-1673 1666 0
-1673 1664 0
1674 -1669 -1666 -1666 0
-1674 1669 0
-1674 1666 0
-1674 1666 0
1675 -1662 -1665 -1667 0
-1675 1662 0
-1675 1665 0
-1675 1667 0
1676 -1664 -1668 -1664 0
-1676 1664 0
-1676 1668 0
-1676 1664 0
1677 -1666 -1666 -1665 0
-1677 1666 0
-1677 1666 0
-1677 1665 0
1678 -1662 -1664 -1664 0
-1678 1662 0
-1678 1664 0
-1678 1664 0
1679 -1664 -1664 -1662 0
-1679 1664 0
-1679 1664 0
-1679 1662 0
1680 -1670 -1661 -1664 0
-1680 1670 0
-1680 1661 0
-1680 1664 0
1681 -1673 -1675 -1677 0
-1681 1673 0
-1681 1675 0
-1681 1677 0
1682 -1675 -1676 -1675 0
-1682 1675 0
-1682 1676 0
-1682 1675 0
1683 -1680 -1675 -1672 0
-1683 1680 0
-1683 1675 0
-1683 1672 0
1684 -1673 -1673 -1676 0
-1684 1673 0
-1684 1673 0
-1684 1676 0
1685 -1674 -1674 -1676 0
-1685 1674 0
-1685 1674 0
-1685 1676 0
1686 -1671 -1674 -1671 0
-1686 1671 0
-1686 1674 0
-1686 1671 0
1687 -1676 -1676 -1671 0
-1687 1676 0
-1687 1676 0
-1687 1671 0
1688 -1678 -1675 -1673 0
-1688 1678 0
-1688 1675 0
-1688 1673 0
1689 -1672 -1677 -1674 0
-1689 1672 0
-1689 1677 0
-1689 1674 0
1690 -1677 -1680 -1678 0
-1690 1677 0
-1690 1680 0
-1690 1678 0
1691 -1687 -1689 -1684 0
-1691 1687 0
-1691 1689 0
-1691 1684 0
1692 -1681 -1688 -1687 0
-1692 1681 0
-1692 1688 0
-1692 1687 0
1693 -1682 -1687 -1689 0
-1693 1682 0
-1693 1687 0
-1693 1689 0
1694 -1687 -1687 -1684 0
-1694 1687 0
-1694 1687 0
-1694 1684 0
1695 -1689 -1689 -1683 0
-1695 1689 0
-1695 1689 0
-1695 1683 0
1696 -1681 -1684 -1686 0
-1696 1681 0
-1696 1684 0
-1696 1686 0
1697 -1690 -1686 -1688 0
-1697 1690 0
-1697 1686 0
-1697 1688 0
1698 -1683 -1683 -1688 0
-1698 1683 0
-1698 1683 0
-1698 1688 0
1699 -1690 -1689 -1689 0
-1699 1690 0
-1699 1689 0
-1699 1689 0
1700 -1686 -1681 -1687 0
-1700 1686 0
-1700 1681 0
-1700 1687 0
1701 -1695 -1692 -1695 0
-1701 1695 0
-1701 1692 0
-1701 1695 0
1702 -1692 -1691 -1695 0
-1702 1692 0
-1702 1691 0
-1702 1695 0
1703 -1694 -1696 -1697 0
-1703 1694 0
-1703 1696 0
-1703 1697 0
1704 -1700 -1698 -1691 0
-1704 1700 0
-1704 1698 0
-1704 1691 0
1705 -1697 -1699 -1694 0
-1705 1697 0
-1705 1699 0
-1705 1694 0
1706 -1698 -1700 -1699 0
-1706 1698 0
-1706 1700 0
-1706 1699 0
1707 -1695 -1694 -1698 0
-1707 1695 0
-1707 1694 0
-1707 1698 0
1708 -1697 -1696 -1696 0
-1708 1697 0
-1708 1696 0
-1708 1696 0
1709 -1699 -1691 -1699 0
-1709 1699 0
-1709 1691 0
-1709 1699 0
1710 -1691 -1691 -1695 0
-1710 1691 0
-1710 1691 0
-1710 1695 0
1711 -1704 -1704 -1708 0
-1711 1704 0
-1711 1704 0
-1711 1708 0
1712 -1705 -1701 -1702 0
-1712 1705 0
-1712 1701 0
-1712 1702 0
1713 -1709 -1710 -1707 0
-1713 1709 0
-1713 1710 0
-1713 1707 0
1714 -1708 -1701 -1703 0
-1714 1708 0
-1714 1701 0
-1714 1703 0
1715 -1710 -1705 -1707 0
-1715 1710 0
-1715 1705 0
-1715 1707 0
1716 -1702 -1701 -1702 0
-1716 1702 0
-1716 1701 0
-1716 1702 0
1717 -1709 -1710 -1704 0
-1717 1709 0
-1717 1710 0
-1717 1704 0
1718 -1710 -1703 -1710 0
-1718 1710 0
-1718 1703 0
-1718 1710 0
1719 -1705 -1702 -1704 0
-1719 1705 0
-1719 1702 0
-1719 1704 0
1720 -1710 -1703 -1702 0
-1720 1710 0
-1720 1703 0
-1720 1702 0
1721 -1713 -1714 -1718 0
-1721 1713 0
-1721 1714 0
-1721 1718 0
1722 -1717 -1712 -1712 0
-1722 1717 0
-1722 1712 0
-1722 1712 0
1723 -1712 -1711 -1713 0
-1723 1712 0
-1723 1711 0
-1723 1713 0
1724 -1716 -1712 -1720 0
-1724 1716 0
-1724 1712 0
-1724 1720 0
1725 -1719 -1712 -1716 0
-1725 1719 0
-1725 1712 0
-1725 1716 0
1726 -1715 -1715 -1711 0
-1726 1715 0
-1726 1715 0
-1726 1711 0
1727 -1717 -1716 -1716 0
-1727 1717 0
-1727 1716 0
-1727 1716 0
1728 -1716 -1715 -1716 0
-1728 1716 0
-1728 1715 0
-1728 1716 0
1729 -1718 -1718 -1718 0
-1729 1718 0
-1729 1718 0
-1729 1718 0
1730 -1716 -1711 -1715 0
-1730 1716 0
-1730 1711 0
-1730 1715 0
1731 -1729 -1727 -1721 0
-1731 1729 0
-1731 1727 0
-1731 1721 0
1732 -1722 -1724 -1723 0
-1732 1722 0
-1732 1724 0
-1732 1723 0
1733 -1726 -1726 -1730 0
-1733 1726 0
-1733 1726 0
-1733 1730 0
1734 -1726 -1724 -1727 0
-1734 1726 0
-1734 1724 0
-1734 1727 0
1735 -1728 -1725 -1730 0
-1735 1728 0
-1735 1725 0
-1735 1730 0
1736 -1727 -1726 -1723 0
-1736 1727 0
-1736 1726 0
-1736 1723 0
1737 -1722 -1724 -1729 0
-1737 1722 0
-1737 1724 0
-1737 1729 0
1738 -1724 -1726 -1725 0
-1738 1724 0
-1738 1726 0
-1738 1725 0
1739 -1723 -1722 -1730 0
-1739 1723 0
-1739 1722 0
-1739 1730 0
1740 -1723 -1724 -1727 0
-1740 1723 0
-1740 1724 0
-1740 1727 0
1741 -1737 -1733 -1739 0
-1741 1737 0
-1741 1733 0
-1741 1739 0
1742 -1733 -1739 -1732 0
-1742 1733 0
-1742 1739 0
-1742 1732 0
1743 -1731 -1739 -1738 0
-1743 1731 0
-1743 1739 0
-1743 1738 0
1744 -1738 -1736 -1732 0
-1744 1738 0
-1744 1736 0
-1744 1732 0
1745 -1737 -1734 -1736 0
-1745 1737 0
-1745 1734 0
-1745 1736 0
1746 -1740 -1735 -1734 0
-1746 1740 0
-1746 1735 0
-1746 1734 0
1747 -1737 -1736 -1731 0
-1747 1737 0
-1747 1736 0
-1747 1731 0
1748 -1739 -1739 -1739 0
-1748 1739 0
-1748 1739 0
-1748 1739 0
1749 -1733 -1733 -1738 0
-1749 1733 0
-1749 1733 0
-1749 1738 0
1750 -1735 -1739 -1735 0
-1750 1735 0
-1750 1739 0
-1750 1735 0
1751 -1742 -1747 -1745 0
-1751 1742 0
-1751 1747 0
-1751 1745 0
1752 -1745 -1748 -1741 0
-1752 1745 0
-1752 1748 0
-1752 1741 0
1753 -1749 -1750 -1749 0
-1753 1749 0
-1753 1750 0
-1753 1749 0
1754 -1746 -1742 -1742 0
-1754 1746 0
-1754 1742 0
-1754 1742 0
1755 -1743 -1745 -1746 0
-1755 1743 0
-1755 1745 0
-1755 1746 0
1756 -1744 -1747 -1750 0
-1756 1744 0
-1756 1747 0
-1756 1750 0
1757 -1748 -1743 -1743 0
-1757 1748 0
-1757 1743 0
-1757 1743 0
1758 -1750 -1749 -1749 0
-1758 1750 0
-1758 1749 0
-1758 1749 0
1759 -1746 -1745 -1744 0
-1759 1746 0
-1759 1745 0
-1759 1744 0
1760 -1749 -1749 -1747 0
-1760 1749 0
-1760 1749 0
-1760 1747 0
1761 -1758 -1756 -1751 0
-1761 1758 0
-1761 1756 0
-1761 1751 0
1762 -1751 -1752 -1759 0
-1762 1751 0
-1762 1752 0
-1762 1759 0
1763 -1760 -1760 -1759 0
-1763 1760 0
-1763 1760 0
-1763 1759 0
1764 -1756 -1751 -1758 0
-1764 1756 0
-1764 1751 0
-1764 1758 0
1765 -1752 -1753 -1751 0
-1765 1752 0
-1765 1753 0
-1765 1751 0
1766 -1760 -1753 -1760 0
-1766 1760 0
-1766 1753 0
-1766 1760 0
1767 -1754 -1757 -1753 0
-1767 1754 0
-1767 1757 0
-1767 1753 0
1768 -1758 -1751 -1753 0
-1768 1758 0
-1768 1751 0
-1768 1753 0
1769 -1755 -1751 -1755 0
-1769 1755 0
-1769 1751 0
-1769 1755 0
1770 -1756 -1760 -1755 0
-1770 1756 0
-1770 1760 0
-1770 1755 0
1771 -1763 -1766 -1769 0
-1771 1763 0
-1771 1766 0
-1771 1769 0
1772 -1762 -1765 -1770 0
-1772 1762 0
-1772 1765 0
-1772 1770 0
1773 -1765 -1770 -1768 0
-1773 1765 0
-1773 1770 0
-1773 1768 0
1774 -1767 -1768 -1770 0
-1774 1767 0
-1774 1768 0
-1774 1770 0
1775 -1769 -1767 -1770 0
-1775 1769 0
-1775 1767 0
-1775 1770 0
1776 -1763 -1763 -1765 0
-1776 1763 0
-1776 1763 0
-1776 1765 0
1777 -1762 -1769 -1770 0
-1777 1762 0
-1777 1769 0
-1777 1770 0
1778 -1767 -1763 -1768 0
-1778 1767 0
-1778 1763 0
-1778 1768 0
1779 -1768 -1763 -1764 0
-1779 1768 0
-1779 1763 0
-1779 1764 0
1780 -1761 -1762 -1766 0
-1780 1761 0
-1780 1762 0
-1780 1766 0
1781 -1776 -1779 -1771 0
-1781 1776 0
-1781 1779 0
-1781 1771 0
1782 -1777 -1772 -1773 0
-1782 1777 0
-1782 1772 0
-1782 1773 0
1783 -1777 -1778 -1780 0
-1783 1777 0
-1783 1778 0
-1783 1780 0
1784 -1775 -1774 -1779 0
-1784 1775 0
-1784 1774 0
-1784 1779 0
1785 -1775 -1777 -1771 0
-1785 1775 0
-1785 1777 0
-1785 1771 0
1786 -1775 -1776 -1777 0
-1786 1775 0
-1786 1776 0
-1786 1777 0
1787 -1773 -1778 -1771 0
-1787 1773 0
-1787 1778 0
-1787 1771 0
1788 -1773 -1775 -1774 0
-1788 1773 0
-1788 1775 0
-1788 1774 0
1789 -1772 -1778 -1776 0
-1789 1772 0
-1789 1778 0
-1789 1776 0
1790 -1776 -1778 -1778 0
-1790 1776 0
-1790 1778 0
-1790 1778 0
1791 -1783 -1782 -1790 0
-1791 1783 0
-1791 1782 0
-1791 1790 0
1792 -1785 -1789 -1786 0
-1792 1785 0
-1792 1789 0
-1792 1786 0
1793 -1781 -1783 -1782 0
-1793 1781 0
-1793 1783 0
-1793 1782 0
1794 -1788 -1786 -1788 0
-1794 1788 0
-1794 1786 0
-1794 1788 0
1795 -1784 -1785 -1788 0
-1795 1784 0
-1795 1785 0
-1795 1788 0
1796 -1787 -1789 -1788 0
-1796 1787 0
-1796 1789 0
-1796 1788 0
1797 -1787 -1782 -1787 0
-1797 1787 0
-1797 1782 0
-1797 1787 0
1798 -1784 -1781 -1782 0
-1798 1784 0
-1798 1781 0
-1798 1782 0
1799 -1781 -1784 -1783 0
-1799 1781 0
-1799 1784 0
-1799 1783 0
1800 -1787 -1784 -1783 0
-1800 1787 0
-1800 1784 0
-1800 1783 0
1801 -1795 -1794 -1791 0
-1801 1795 0
-1801 1794 0
-1801 1791 0
1802 -1798 -1797 -1794 0
-1802 1798 0
-1802 1797 0
-1802 1794 0
1803 -1800 -1798 -1795 0
-1803 1800 0
-1803 1798 0
-1803 1795 0
1804 -1792 -1791 -1791 0
-1804 1792 0
-1804 1791 0
-1804 1791 0
1805 -1800 -1792 -1791 0
-1805 1800 0
-1805 1792 0
-1805 1791 0
1806 -1793 -1794 -1798 0
-1806 1793 0
-1806 1794 0
-1806 1798 0
1807 -1792 -1795 -1797 0
-1807 1792 0
-1807 1795 0
-1807 1797 0
1808 -1800 -1800 -1796 0
-1808 1800 0
-1808 1800 0
-1808 1796 0
1809 -1800 -1800 -1800 0
-1809 1800 0
-1809 1800 0
-1809 1800 0
1810 -1794 -1791 -1793 0
-1810 1794 0
-1810 1791 0
-1810 1793 0
1811 -1810 -1807 -1807 0
-1811 1810 0
-1811 1807 0
-1811 1807 0
1812 -1805 -1805 -1809 0
-1812 1805 0
-1812 1805 0
-1812 1809 0
1813 -1806 -1802 -1808 0
-1813 1806 0
-1813 1802 0
-1813 1808 0
1814 -1809 -1808 -1802 0
-1814 1809 0
-1814 1808 0
-1814 1802 0
1815 -1810 -1807 -1810 0
-1815 1810 0
-1815 1807 0
-1815 1810 0
1816 -1808 -1804 -1809 0
-1816 1808 0
-1816 1804 0
-1816 1809 0
1817 -1804 -1808 -1801 0
-1817 1804 0
-1817 1808 0
-1817 1801 0
1818 -1801 -1807 -1806 0
-1818 1801 0
-1818 1807 0
-1818 1806 0
1819 -1807 -1809 -1810 0
-1819 1807 0
-1819 1809 0
-1819 1810 0
1820 -1805 -1801 -1808 0
-1820 1805 0
-1820 1801 0
-1820 1808 0
1821 -1813 -1814 -1816 0
-1821 1813 0
-1821 1814 0
-1821 1816 0
1822 -1814 -1812 -1812 0
-1822 1814 0
-1822 1812 0
-1822 1812 0
1823 -1813 -1817 -1812 0
-1823 1813 0
-1823 1817 0
-1823 1812 0
1824 -1816 -1815 -1815 0
-1824 1816 0
-1824 1815 0
-1824 1815 0
1825 -1815 -1817 -1814 0
-1825 1815 0
-1825 1817 0
-1825 1814 0
1826 -1814 -1815 -1818 0
-1826 1814 0
-1826 1815 0
-1826 1818 0
1827 -1816 -1816 -1817 0
-1827 1816 0
-1827 1816 0
-1827 1817 0
1828 -1816 -1817 -1812 0
-1828 1816 0
-1828 1817 0
-1828 1812 0
1829 -1818 -1814 -1812 0
-1829 1818 0
-1829 1814 0
-1829 1812 0
1830 -1812 -1815 -1817 0
-1830 1812 0
-1830 1815 0
-1830 1817 0
1831 -1824 -1829 -1821 0
-1831 1824 0
-1831 1829 0
-1831 1821 0
1832 -1823 -1826 -1825 0
-1832 1823 0
-1832 1826 0
-1832 1825 0
1833 -1829 -1826 -1824 0
-1833 1829 0
-1833 1826 0
-1833 1824 0
1834 -1828 -1825 -1827 0
-1834 1828 0
-1834 1825 0
-1834 1827 0
1835 -1825 -1827 -1830 0
-1835 1825 0
-1835 1827 0
-1835 1830 0
1836 -1822 -1829 -1823 0
-1836 1822 0
-1836 1829 0
-1836 1823 0
1837 -1826 -1824 -1821 0
-1837 1826 0
-1837 1824 0
-1837 1821 0
1838 -1826 -1827 -1826 0
-1838 1826 0
-1838 1827 0
-1838 1826 0
1839 -1826 -1828 -1828 0
-1839 1826 0
-1839 1828 0
-1839 1828 0
1840 -1824 -1828 -1822 0
-1840 1824 0
-1840 1828 0
-1840 1822 0
1841 -1837 -1839 -1838 0
-1841 1837 0
-1841 1839 0
-1841 1838 0
1842 -1831 -1836 -1832 0
-1842 1831 0
-1842 1836 0
-1842 1832 0
1843 -1840 -1832 -1840 0
-1843 1840 0
-1843 1832 0
-1843 1840 0
1844 -1831 -1833 -1833 0
-1844 1831 0
-1844 1833 0
-1844 1833 0
1845 -1832 -1831 -1834 0
-1845 1832 0
-1845 1831 0
-1845 1834 0
1846 -1832 -1831 -1833 0
-1846 1832 0
-1846 1831 0
-1846 1833 0
1847 -1835 -1837 -1832 0
-1847 1835 0
-1847 1837 0
-1847 1832 0
1848 -1837 -1836 -1834 0
-1848 1837 0
-1848 1836 0
-1848 1834 0
1849 -1834 -1838 -1836 0
-1849 1834 0
-1849 1838 0
-1849 1836 0
1850 -1839 -1839 -1840 0
-1850 1839 0
-1850 1839 0
-1850 1840 0
1851 -1848 -1845 -1844 0
-1851 1848 0
-1851 1845 0
-1851 1844 0
1852 -1850 -1850 -1846 0
-1852 1850 0
-1852 1850 0
-1852 1846 0
1853 -1849 -1846 -1846 0
-1853 1849 0
-1853 1846 0
-1853 1846 0
1854 -1850 -1846 -1850 0
-1854 1850 0
-1854 1846 0
-1854 1850 0
1855 -1843 -1843 -1845 0
-1855 1843 0
-1855 1843 0
-1855 1845 0
1856 -1847 -1845 -1844 0
-1856 1847 0
-1856 1845 0
-1856 1844 0
1857 -1844 -1847 -1848 0
-1857 1844 0
-1857 1847 0
-1857 1848 0
1858 -1850 -1842 -1844 0
-1858 1850 0
-1858 1842 0
-1858 1844 0
1859 -1845 -1842 -1849 0
-1859 1845 0
-1859 1842 0
-1859 1849 0
1860 -1841 -1846 -1849 0
-1860 1841 0
-1860 1846 0
-1860 1849 0
1861 -1853 -1853 -1859 0
-1861 1853 0
-1861 1853 0
-1861 1859 0
1862 -1851 -1860 -1860 0
-1862 1851 0
-1862 1860 0
-1862 1860 0
1863 -1857 -1855 -1858 0
-1863 1857 0
-1863 1855 0
-1863 1858 0
1864 -1857 -1853 -1859 0
-1864 1857 0
-1864 1853 0
-1864 1859 0
1865 -1860 -1859 -1857 0
-1865 1860 0
-1865 1859 0
-1865 1857 0
1866 -1856 -1857 -1854 0
-1866 1856 0
-1866 1857 0
-1866 1854 0
1867 -1851 -1857 -1852 0
-1867 1851 0
-1867 1857 0
-1867 1852 0
1868 -1854 -1856 -1860 0
-1868 1854 0
-1868 1856 0
-1868 1860 0
1869 -1860 -1851 -1860 0
-1869 1860 0
-1869 1851 0
-1869 1860 0
1870 -1857 -1858 -1856 0
-1870 1857 0
-1870 1858 0
-1870 1856 0
1871 -1869 -1868 -1863 0
-1871 1869 0
-1871 1868 0
-1871 1863 0
1872 -1862 -1868 -1862 0
-1872 1862 0
-1872 1868 0
-1872 1862 0
1873 -1863 -1870 -1861 0
-1873 1863 0
-1873 1870 0
-1873 1861 0
1874 -1870 -1866 -1861 0
-1874 1870 0
-1874 1866 0
-1874 1861 0
1875 -1861 -1865 -1863 0
-1875 1861 0
-1875 1865 0
-1875 1863 0
1876 -1861 -1862 -1869 0
-1876 1861 0
-1876 1862 0
-1876 1869 0
1877 -1862 -1861 -1866 0
-1877 1862 0
-1877 1861 0
-1877 1866 0
1878 -1868 -1865 -1861 0
-1878 1868 0
-1878 1865 0
-1878 1861 0
1879 -1862 -1867 -1868 0
-1879 1862 0
-1879 1867 0
-1879 1868 0
1880 -1869 -1863 -1869 0
-1880 1869 0
-1880 1863 0
-1880 1869 0
1881 -1878 -1877 -1872 0
-1881 1878 0
-1881 1877 0
-1881 1872 0
1882 -1878 -1879 -1871 0
-1882 1878 0
-1882 1879 0
-1882 1871 0
1883 -1879 -1873 -1877 0
-1883 1879 0
-1883 1873 0
-1883 1877 0
1884 -1872 -1876 -1879 0
-1884 1872 0
-1884 1876 0
-1884 1879 0
1885 -1873 -1874 -1872 0
-1885 1873 0
-1885 1874 0
-1885 1872 0
1886 -1873 -1878 -1876 0
-1886 1873 0
-1886 1878 0
-1886 1876 0
1887 -1875 -1879 -1878 0
-1887 1875 0
-1887 1879 0
-1887 1878 0
1888 -1872 -1879 -1871 0
-1888 1872 0
-1888 1879 0
-1888 1871 0
1889 -1874 -1878 -1877 0
-1889 1874 0
-1889 1878 0
-1889 1877 0
1890 -1876 -1880 -1878 0
-1890 1876 0
-1890 1880 0
-1890 1878 0
1891 -1883 -1887 -1885 0
-1891 1883 0
-1891 1887 0
-1891 1885 0
1892 -1888 -1888 -1882 0
-1892 1888 0
-1892 1888 0
-1892 1882 0
1893 -1885 -1886 -1882 0
-1893 1885 0
-1893 1886 0
-1893 1882 0
1894 -1885 -1889 -1881 0
-1894 1885 0
-1894 1889 0
-1894 1881 0
1895 -1888 -1890 -1882 0
-1895 1888 0
-1895 1890 0
-1895 1882 0
1896 -1884 -1889 -1886 0
-1896 1884 0
-1896 1889 0
-1896 1886 0
1897 -1884 -1884 -1884 0
-1897 1884 0
-1897 1884 0
-1897 1884 0
1898 -1888 -1883 -1890 0
-1898 1888 0
-1898 1883 0
-1898 1890 0
1899 -1887 -1886 -1883 0
-1899 1887 0
-1899 1886 0
-1899 1883 0
1900 -1889 -1888 -1889 0
-1900 1889 0
-1900 1888 0
-1900 1889 0
1901 -1892 -1894 -1896 0
-1901 1892 0
-1901 1894 0
-1901 1896 0
1902 -1899 -1900 -1893 0
-1902 1899 0
-1902 1900 0
-1902 1893 0
1903 -1891 -1892 -1891 0
-1903 1891 0
-1903 1892 0
-1903 1891 0
1904 -1897 -1893 -1896 0
-1904 1897 0
-1904 1893 0
-1904 1896 0
1905 -1893 -1896 -1896 0
-1905 1893 0
-1905 1896 0
-1905 1896 0
1906 -1895 -1897 -1898 0
-1906 1895 0
-1906 1897 0
-1906 1898 0
1907 -1893 -1893 -1896 0
-1907 1893 0
-1907 1893 0
-1907 1896 0
1908 -1896 -1893 -1894 0
-1908 1896 0
-1908 1893 0
-1908 1894 0
1909 -1892 -1895 -1891 0
-1909 1892 0
-1909 1895 0
-1909 1891 0
1910 -1898 -1900 -1899 0
-1910 1898 0
-1910 1900 0
-1910 1899 0
1911 -1903 -1908 -1906 0
-1911 1903 0
-1911 1908 0
-1911 1906 0
1912 -1910 -1903 -1901 0
-1912 1910 0
-1912 1903 0
-1912 1901 0
1913 -1907 -1907 -1902 0
-1913 1907 0
-1913 1907 0
-1913 1902 0
1914 -1902 -1908 -1904 0
-1914 1902 0
-1914 1908 0
-1914 1904 0
1915 -1905 -1901 -1909 0
-1915 1905 0
-1915 1901 0
-1915 1909 0
1916 -1906 -1906 -1902 0
-1916 1906 0
-1916 1906 0
-1916 1902 0
1917 -1908 -1910 -1909 0
-1917 1908 0
-1917 1910 0
-1917 1909 0
1918 -1908 -1907 -1905 0
-1918 1908 0
-1918 1907 0
-1918 1905 0
1919 -1907 -1907 -1902 0
-1919 1907 0
-1919 1907 0
-1919 1902 0
1920 -1907 -1906 -1909 0
-1920 1907 0
-1920 1906 0
-1920 1909 0
1921 -1914 -1911 -1919 0
-1921 1914 0
-1921 1911 0
-1921 1919 0
1922 -1918 -1914 -1912 0
-1922 1918 0
-1922 1914 0
-1922 1912 0
1923 -1916 -1916 -1914 0
-1923 1916 0
-1923 1916 0
-1923 1914 0
1924 -1916 -1916 -1920 0
-1924 1916 0
-1924 1916 0
-1924 1920 0
1925 -1914 -1914 -1912 0
-1925 1914 0
-1925 1914 0
-1925 1912 0
1926 -1919 -1919 -1912 0
-1926 1919 0
-1926 1919 0
-1926 1912 0
1927 -1920 -1918 -1914 0
-1927 1920 0
-1927 1918 0
-1927 1914 0
1928 -1917 -1917 -1913 0
-1928 1917 0
-1928 1917 0
-1928 1913 0
1929 -1913 -1914 -1919 0
-1929 1913 0
-1929 1914 0
-1929 1919 0
1930 -1912 -1920 -1912 0
-1930 1912 0
-1930 1920 0
-1930 1912 0
1931 -1925 -1926 -1927 0
-1931 1925 0
-1931 1926 0
-1931 1927 0
1932 -1921 -1927 -1930 0
-1932 1921 0
-1932 1927 0
-1932 1930 0
1933 -1929 -1922 -1928 0
-1933 1929 0
-1933 1922 0
-1933 1928 0
1934 -1926 -1927 -1926 0
-1934 1926 0
-1934 1927 0
-1934 1926 0
1935 -1927 -1923 -1923 0
-1935 1927 0
-1935 1923 0
-1935 1923 0
1936 -1922 -1926 -1923 0
-1936 1922 0
-1936 1926 0
-1936 1923 0
1937 -1924 -1922 -1924 0
-1937 1924 0
-1937 1922 0
-1937 1924 0
1938 -1930 -1921 -1927 0
-1938 1930 0
-1938 1921 0
-1938 1927 0
1939 -1925 -1927 -1924 0
-1939 1925 0
-1939 1927 0
-1939 1924 0
1940 -1925 -1926 -1926 0
-1940 1925 0
-1940 1926 0
-1940 1926 0
1941 -1931 -1938 -1934 0
-1941 1931 0
-1941 1938 0
-1941 1934 0
1942 -1940 -1937 -1936 0
-1942 1940 0
-1942 1937 0
-1942 1936 0
1943 -1940 -1937 -1933 0
-1943 1940 0
-1943 1937 0
-1943 1933 0
1944 -1937 -1932 -1938 0
-1944 1937 0
-1944 1932 0
-1944 1938 0
1945 -1939 -1938 -1938 0
-1945 1939 0
-1945 1938 0
-1945 1938 0
1946 -1937 -1940 -1940 0
-1946 1937 0
-1946 1940 0
-1946 1940 0
1947 -1940 -1939 -1939 0
-1947 1940 0
-1947 1939 0
-1947 1939 0
1948 -1939 -1940 -1940 0
-1948 1939 0
-1948 1940 0
-1948 1940 0
1949 -1931 -1934 -1939 0
-1949 1931 0
-1949 1934 0
-1949 1939 0
1950 -1935 -1938 -1933 0
-1950 1935 0
-1950 1938 0
-1950 1933 0
1951 -1944 -1941 -1945 0
-1951 1944 0
-1951 1941 0
-1951 1945 0
1952 -1944 -1945 -1944 0
-1952 1944 0
-1952 1945 0
-1952 1944 0
1953 -1943 -1941 -1947 0
-1953 1943 0
-1953 1941 0
-1953 1947 0
1954 -1941 -1945 -1943 0
-1954 1941 0
-1954 1945 0
-1954 1943 0
1955 -1949 -1942 -1946 0
-1955 1949 0
-1955 1942 0
-1955 1946 0
1956 -1946 -1949 -1943 0
-1956 1946 0
-1956 1949 0
-1956 1943 0
1957 -1942 -1941 -1941 0
-1957 1942 0
-1957 1941 0
-1957 1941 0
1958 -1948 -1943 -1943 0
-1958 1948 0
-1958 1943 0
-1958 1943 0
1959 -1948 -1945 -1948 0
-1959 1948 0
-1959 1945 0
-1959 1948 0
1960 -1942 -1945 -1943 0
-1960 1942 0
-1960 1945 0
-1960 1943 0
1961 -1959 -1952 -1954 0
-1961 1959 0
-1961 1952 0
-1961 1954 0
1962 -1957 -1954 -1958 0
-1962 1957 0
-1962 1954 0
-1962 1958 0
1963 -1951 -1954 -1953 0
-1963 1951 0
-1963 1954 0
-1963 1953 0
1964 -1953 -1959 -1956 0
-1964 1953 0
-1964 1959 0
-1964 1956 0
1965 -1951 -1955 -1959 0
-1965 1951 0
-1965 1955 0
-1965 1959 0
1966 -1958 -1956 -1955 0
-1966 1958 0
-1966 1956 0
-1966 1955 0
1967 -1955 -1952 -1955 0
-1967 1955 0
-1967 1952 0
-1967 1955 0
1968 -1953 -1954 -1960 0
-1968 1953 0
-1968 1954 0
-1968 1960 0
1969 -1957 -1951 -1960 0
-1969 1957 0
-1969 1951 0
-1969 1960 0
1970 -1953 -1958 -1955 0
-1970 1953 0
-1970 1958 0
-1970 1955 0
1971 -1964 -1970 -1965 0
-1971 1964 0
-1971 1970 0
-1971 1965 0
1972 -1967 -1961 -1967 0
-1972 1967 0
-1972 1961 0
-1972 1967 0
1973 -1967 -1970 -1967 0
-1973 1967 0
-1973 1970 0
-1973 1967 0
1974 -1969 -1961 -1967 0
-1974 1969 0
-1974 1961 0
-1974 1967 0
1975 -1962 -1963 -1970 0
-1975 1962 0
-1975 1963 0
-1975 1970 0
1976 -1968 -1965 -1964 0
-1976 1968 0
-1976 1965 0
-1976 1964 0
1977 -1968 -1970 -1970 0
-1977 1968 0
-1977 1970 0
-1977 1970 0
1978 -1965 -1962 -1961 0
-1978 1965 0
-1978 1962 0
-1978 1961 0
1979 -1968 -1963 -1966 0
-1979 1968 0
-1979 1963 0
-1979 1966 0
1980 -1968 -1963 -1963 0
-1980 1968 0
-1980 1963 0
-1980 1963 0
1981 -1978 -1980 -1971 0
-1981 1978 0
-1981 1980 0
-1981 1971 0
1982 -1978 -1977 -1972 0
-1982 1978 0
-1982 1977 0
-1982 1972 0
1983 -1972 -1974 -1972 0
-1983 1972 0
-1983 1974 0
-1983 1972 0
1984 -1974 -1977 -1973 0
-1984 1974 0
-1984 1977 0
-1984 1973 0
1985 -1978 -1979 -1975 0
-1985 1978 0
-1985 1979 0
-1985 1975 0
1986 -1973 -1972 -1971 0
-1986 1973 0
-1986 1972 0
-1986 1971 0
1987 -1972 -1974 -1977 0
-1987 1972 0
-1987 1974 0
-1987 1977 0
1988 -1979 -1975 -1972 0
-1988 1979 0
-1988 1975 0
-1988 1972 0
1989 -1978 -1978 -1980 0
-1989 1978 0
-1989 1978 0
-1989 1980 0
1990 -1976 -1980 -1974 0
-1990 1976 0
-1990 1980 0
-1990 1974 0
1991 -1989 -1988 -1985 0
-1991 1989 0
-1991 1988 0
-1991 1985 0
1992 -1990 -1987 -1988 0
-1992 1990 0
-1992 1987 0
-1992 1988 0
1993 -1987 -1986 -1981 0
-1993 1987 0
-1993 1986 0
-1993 1981 0
1994 -1986 -1990 -1984 0
-1994 1986 0
-1994 1990 0
-1994 1984 0
1995 -1989 -1990 -1985 0
-1995 1989 0
-1995 1990 0
-1995 1985 0
1996 -1985 -1981 -1983 0
-1996 1985 0
-1996 1981 0
-1996 1983 0
1997 -1982 -1982 -1981 0
-1997 1982 0
-1997 1982 0
-1997 1981 0
1998 -1986 -1989 -1986 0
-1998 1986 0
-1998 1989 0
-1998 1986 0
1999 -1986 -1988 -1984 0
-1999 1986 0
-1999 1988 0
-1999 1984 0
2000 -1982 -1983 -1986 0
-2000 1982 0
-2000 1983 0
-2000 1986 0
2001 -1994 -1995 -2000 0
-2001 1994 0
-2001 1995 0
-2001 2000 0
2002 -1994 -1991 -1995 0
-2002 1994 0
-2002 1991 0
-2002 1995 0
2003 -1995 -1992 -1996 0
-2003 1995 0
-2003 1992 0
-2003 1996 0
2004 -2000 -1993 -1998 0
-2004 2000 0
-2004 1993 0
-2004 1998 0
2005 -1996 -1993 -1996 0
-2005 1996 0
-2005 1993 0
-2005 1996 0
2006 -1998 -1993 -2000 0
-2006 1998 0
-2006 1993 0
-2006 2000 0
2007 -1996 -1998 -1993 0
-2007 1996 0
-2007 1998 0
-2007 1993 0
2008 -1991 -1993 -1995 0
-2008 1991 0
-2008 1993 0
-2008 1995 0
2009 -1995 -1995 -1998 0
-2009 1995 0
-2009 1995 0
-2009 1998 0
2010 -1994 -1992 -1996 0
-2010 1994 0
-2010 1992 0
-2010 1996 0
2011 -2008 -2003 -2007 0
-2011 2008 0
-2011 2003 0
-2011 2007 0
2012 -2002 -2007 -2009 0
-2012 2002 0
-2012 2007 0
-2012 2009 0
2013 -2008 -2008 -2005 0
-2013 2008 0
-2013 2008 0
-2013 2005 0
2014 -2004 -2010 -2001 0
-2014 2004 0
-2014 2010 0
-2014 2001 0
2015 -2010 -2005 -2004 0
-2015 2010 0
-2015 2005 0
-2015 2004 0
2016 -2005 -2010 -2009 0
-2016 2005 0
-2016 2010 0
-2016 2009 0
2017 -2007 -2009 -2004 0
-2017 2007 0
-2017 2009 0
-2017 2004 0
2018 -2010 -2008 -2003 0
-2018 2010 0
-2018 2008 0
-2018 2003 0
2019 -2007 -2006 -2002 0
-2019 2007 0
-2019 2006 0
-2019 2002 0
2020 -2002 -2008 -2010 0
-2020 2002 0
-2020 2008 0
-2020 2010 0
2021 -2017 -2017 -2015 0
-2021 2017 0
-2021 2017 0
-2021 2015 0
2022 -2017 -2015 -2015 0
-2022 2017 0
-2022 2015 0
-2022 2015 0
2023 -2016 -2018 -2013 0
-2023 2016 0
-2023 2018 0
-2023 2013 0
2024 -2012 -2019 -2018 0
-2024 2012 0
-2024 2019 0
-2024 2018 0
2025 -2019 -2015 -2020 0
-2025 2019 0
-2025 2015 0
-2025 2020 0
2026 -2019 -2020 -2017 0
-2026 2019 0
-2026 2020 0
-2026 2017 0
2027 -2014 -2014 -2014 0
-2027 2014 0
-2027 2014 0
-2027 2014 0
2028 -2014 -2017 -2012 0
-2028 2014 0
-2028 2017 0
-2028 2012 0
2029 -2014 -2013 -2015 0
-2029 2014 0
-2029 2013 0
-2029 2015 0
2030 -2018 -2012 -2012 0
-2030 2018 0
-2030 2012 0
-2030 2012 0
2031 -2021 -2030 -2028 0
-2031 2021 0
-2031 2030 0
-2031 2028 0
2032 -2022 -2023 -2023 0
-2032 2022 0
-2032 2023 0
-2032 2023 0
2033 -2030 -2027 -2028 0
-2033 2030 0
-2033 2027 0
-2033 2028 0
2034 -2021 -2023 -2025 0
-2034 2021 0
-2034 2023 0
-2034 2025 0
2035 -2021 -2023 -2028 0
-2035 2021 0
-2035 2023 0
-2035 2028 0
2036 -2026 -2026 -2025 0
-2036 2026 0
-2036 2026 0
-2036 2025 0
2037 -2022 -2030 -2028 0
-2037 2022 0
-2037 2030 0
-2037 2028 0
2038 -2025 -2027 -2028 0
-2038 2025 0
-2038 2027 0
-2038 2028 0
2039 -2022 -2026 -2022 0
-2039 2022 0
-2039 2026 0
-2039 2022 0
2040 -2021 -2026 -2021 0
-2040 2021 0
-2040 2026 0
-2040 2021 0
2041 -2035 -2038 -2038 0
-2041 2035 0
-2041 2038 0
-2041 2038 0
2042 -2036 -2033 -2034 0
-2042 2036 0
-2042 2033 0
-2042 2034 0
2043 -2032 -2033 -2037 0
-2043 2032 0
-2043 2033 0
-2043 2037 0
2044 -2040 -2040 -2039 0
-2044 2040 0
-2044 2040 0
-2044 2039 0
2045 -2037 -2031 -2035 0
-2045 2037 0
-2045 2031 0
-2045 2035 0
2046 -2037 -2040 -2036 0
-2046 2037 0
-2046 2040 0
-2046 2036 0
2047 -2036 -2035 -2040 0
-2047 2036 0
-2047 2035 0
-2047 2040 0
2048 -2037 -2035 -2033 0
-2048 2037 0
-2048 2035 0
-2048 2033 0
2049 -2036 -2036 -2031 0
-2049 2036 0
-2049 2036 0
-2049 2031 0
2050 -2037 -2034 -2031 0
-2050 2037 0
-2050 2034 0
-2050 2031 0
2051 -2047 -2044 -2049 0
-2051 2047 0
-2051 2044 0
-2051 2049 0
2052 -2048 -2048 -2045 0
-2052 2048 0
-2052 2048 0
-2052 2045 0
2053 -2041 -2044 -2049 0
-2053 2041 0
-2053 2044 0
-2053 2049 0
2054 -2043 -2048 -2043 0
-2054 2043 0
-2054 2048 0
-2054 2043 0
2055 -2047 -2043 -2041 0
-2055 2047 0
-2055 2043 0
-2055 2041 0
2056 -2048 -2049 -2046 0
-2056 2048 0
-2056 2049 0
-2056 2046 0
2057 -2044 -2045 -2043 0
-2057 2044 0
-2057 2045 0
-2057 2043 0
2058 -2043 -2046 -2050 0
-2058 2043 0
-2058 2046 0
-2058 2050 0
2059 -2048 -2048 -2042 0
-2059 2048 0
-2059 2048 0
-2059 2042 0
2060 -2042 -2048 -2050 0
-2060 2042 0
-2060 2048 0
-2060 2050 0
2061 -2056 -2059 -2053 0
-2061 2056 0
-2061 2059 0
-2061 2053 0
2062 -2058 -2057 -2057 0
-2062 2058 0
-2062 2057 0
-2062 2057 0
2063 -2060 -2051 -2060 0
-2063 2060 0
-2063 2051 0
-2063 2060 0
2064 -2058 -2051 -2055 0
-2064 2058 0
-2064 2051 0
-2064 2055 0
2065 -2057 -2051 -2060 0
-2065 2057 0
-2065 2051 0
-2065 2060 0
2066 -2058 -2059 -2053 0
-2066 2058 0
-2066 2059 0
-2066 2053 0
2067 -2051 -2054 -2051 0
-2067 2051 0
-2067 2054 0
-2067 2051 0
2068 -2052 -2053 -2051 0
-2068 2052 0
-2068 2053 0
-2068 2051 0
2069 -2057 -2051 -2060 0
-2069 2057 0
-2069 2051 0
-2069 2060 0
2070 -2060 -2053 -2058 0
-2070 2060 0
-2070 2053 0
-2070 2058 0
2071 -2070 -2069 -2062 0
-2071 2070 0
-2071 2069 0
-2071 2062 0
2072 -2063 -2064 -2063 0
-2072 2063 0
-2072 2064 0
-2072 2063 0
2073 -2069 -2064 -2064 0
-2073 2069 0
-2073 2064 0
-2073 2064 0
2074 -2068 -2062 -2065 0
-2074 2068 0
-2074 2062 0
-2074 2065 0
2075 -2066 -2065 -2070 0
-2075 2066 0
-2075 2065 0
-2075 2070 0
2076 -2062 -2063 -2067 0
-2076 2062 0
-2076 2063 0
-2076 2067 0
2077 -2069 -2064 -2063 0
-2077 2069 0
-2077 2064 0
-2077 2063 0
2078 -2068 -2067 -2066 0
-2078 2068 0
-2078 2067 0
-2078 2066 0
2079 -2066 -2065 -2062 0
-2079 2066 0
-2079 2065 0
-2079 2062 0
2080 -2070 -2063 -2061 0
-2080 2070 0
-2080 2063 0
-2080 2061 0
2081 -2073 -2079 -2078 0
-2081 2073 0
-2081 2079 0
-2081 2078 0
2082 -2071 -2073 -2073 0
-2082 2071 0
-2082 2073 0
-2082 2073 0
2083 -2080 -2072 -2072 0
-2083 2080 0
-2083 2072 0
-2083 2072 0
2084 -2074 -2073 -2079 0
-2084 2074 0
-2084 2073 0
-2084 2079 0
2085 -2080 -2079 -2077 0
-2085 2080 0
-2085 2079 0
-2085 2077 0
2086 -2080 -2073 -2075 0
-2086 2080 0
-2086 2073 0
-2086 2075 0
2087 -2079 -2076 -2078 0
-2087 2079 0
-2087 2076 0
-2087 2078 0
2088 -2077 -2076 -2078 0
-2088 2077 0
-2088 2076 0
-2088 2078 0
2089 -2072 -2080 -2079 0
-2089 2072 0
-2089 2080 0
-2089 2079 0
2090 -2072 -2078 -2077 0
-2090 2072 0
-2090 2078 0
-2090 2077 0
2091 -2090 -2088 -2085 0
-2091 2090 0
-2091 2088 0
-2091 2085 0
2092 -2089 -2081 -2087 0
-2092 2089 0
-2092 2081 0
-2092 2087 0
2093 -2083 -2088 -2090 0
-2093 2083 0
-2093 2088 0
-2093 2090 0
2094 -2087 -2090 -2086 0
-2094 2087 0
-2094 2090 0
-2094 2086 0
2095 -2082 -2084 -2088 0
-2095 2082 0
-2095 2084 0
-2095 2088 0
2096 -2089 -2086 -2082 0
-2096 2089 0
-2096 2086 0
-2096 2082 0
2097 -2086 -2086 -2088 0
-2097 2086 0
-2097 2086 0
-2097 2088 0
2098 -2085 -2087 -2084 0
-2098 2085 0
-2098 2087 0
-2098 2084 0
2099 -2086 -2083 -2082 0
-2099 2086 0
-2099 2083 0
-2099 2082 0
2100 -2087 -2088 -2089 0
-2100 2087 0
-2100 2088 0
-2100 2089 0
2101 -2094 -2095 -2096 0
-2101 2094 0
-2101 2095 0
-2101 2096 0
2102 -2096 -2096 -2099 0
-2102 2096 0
-2102 2096 0
-2102 2099 0
2103 -2095 -2100 -2095 0
-2103 2095 0
-2103 2100 0
-2103 2095 0
2104 -2099 -2098 -2099 0
-2104 2099 0
-2104 2098 0
-2104 2099 0
2105 -2100 -2096 -2099 0
-2105 2100 0
-2105 2096 0
-2105 2099 0
2106 -2095 -2100 -2093 0
-2106 2095 0
-2106 2100 0
-2106 2093 0
2107 -2094 -2092 -2099 0
-2107 2094 0
-2107 2092 0
-2107 2099 0
2108 -2094 -2098 -2096 0
-2108 2094 0
-2108 2098 0
-2108 2096 0
2109 -2100 -2094 -2098 0
-2109 2100 0
-2109 2094 0
-2109 2098 0
2110 -2100 -2095 -2098 0
-2110 2100 0
-2110 2095 0
-2110 2098 0
2111 -2103 -2101 -2109 0
-2111 2103 0
-2111 2101 0
-2111 2109 0
2112 -2108 -2108 -2106 0
-2112 2108 0
-2112 2108 0
-2112 2106 0
2113 -2110 -2105 -2102 0
-2113 2110 0
-2113 2105 0
-2113 2102 0
2114 -2109 -2105 -2110 0
-2114 2109 0
-2114 2105 0
-2114 2110 0
2115 -2101 -2109 -2101 0
-2115 2101 0
-2115 2109 0
-2115 2101 0
2116 -2107 -2106 -2104 0
-2116 2107 0
-2116 2106 0
-2116 2104 0
2117 -2110 -2107 -2106 0
-2117 2110 0
-2117 2107 0
-2117 2106 0
2118 -2109 -2109 -2106 0
-2118 2109 0
-2118 2109 0
-2118 2106 0
2119 -2108 -2101 -2104 0
-2119 2108 0
-2119 2101 0
-2119 2104 0
2120 -2102 -2104 -2109 0
-2120 2102 0
-2120 2104 0
-2120 2109 0
2121 -2111 -2114 -2111 0
-2121 2111 0
-2121 2114 0
-2121 2111 0
2122 -2117 -2116 -2117 0
-2122 2117 0
-2122 2116 0
-2122 2117 0
2123 -2118 -2116 -2114 0
-2123 2118 0
-2123 2116 0
-2123 2114 0
2124 -2120 -2115 -2114 0
-2124 2120 0
-2124 2115 0
-2124 2114 0
2125 -2111 -2120 -2114 0
-2125 2111 0
-2125 2120 0
-2125 2114 0
2126 -2119 -2120 -2119 0
-2126 2119 0
-2126 2120 0
-2126 2119 0
2127 -2118 -2114 -2118 0
-2127 2118 0
-2127 2114 0
-2127 2118 0
2128 -2113 -2114 -2120 0
-2128 2113 0
-2128 2114 0
-2128 2120 0
2129 -2114 -2115 -2118 0
-2129 2114 0
-2129 2115 0
-2129 2118 0
2130 -2114 -2117 -2116 0
-2130 2114 0
-2130 2117 0
-2130 2116 0
2131 -2123 -2128 -2127 0
-2131 2123 0
-2131 2128 0
-2131 2127 0
2132 -2130 -2122 -2124 0
-2132 2130 0
-2132 2122 0
-2132 2124 0
2133 -2130 -2129 -2127 0
-2133 2130 0
-2133 2129 0
-2133 2127 0
2134 -2126 -2127 -2123 0
-2134 2126 0
-2134 2127 0
-2134 2123 0
2135 -2122 -2127 -2122 0
-2135 2122 0
-2135 2127 0
-2135 2122 0
2136 -2122 -2125 -2122 0
-2136 2122 0
-2136 2125 0
-2136 2122 0
2137 -2124 -2123 -2124 0
-2137 2124 0
-2137 2123 0
-2137 2124 0
2138 -2127 -2122 -2125 0
-2138 2127 0
-2138 2122 0
-2138 2125 0
2139 -2129 -2129 -2130 0
-2139 2129 0
-2139 2129 0
-2139 2130 0
2140 -2121 -2121 -2123 0
-2140 2121 0
-2140 2121 0
-2140 2123 0
2141 -2140 -2136 -2137 0
-2141 2140 0
-2141 2136 0
-2141 2137 0
2142 -2134 -2138 -2140 0
-2142 2134 0
-2142 2138 0
-2142 2140 0
2143 -2135 -2135 -2131 0
-2143 2135 0
-2143 2135 0
-2143 2131 0
2144 -2131 -2140 -2138 0
-2144 2131 0
-2144 2140 0
-2144 2138 0
2145 -2133 -2135 -2134 0
-2145 2133 0
-2145 2135 0
-2145 2134 0
2146 -2138 -2137 -2137 0
-2146 2138 0
-2146 2137 0
-2146 2137 0
2147 -2136 -2132 -2131 0
-2147 2136 0
-2147 2132 0
-2147 2131 0
2148 -2138 -2135 -2137 0
-2148 2138 0
-2148 2135 0
-2148 2137 0
2149 -2132 -2132 -2138 0
-2149 2132 0
-2149 2132 0
-2149 2138 0
2150 -2134 -2131 -2138 0
-2150 2134 0
-2150 2131 0
-2150 2138 0
2151 -2142 -2146 -2141 0
-2151 2142 0
-2151 2146 0
-2151 2141 0
2152 -2148 -2141 -2145 0
-2152 2148 0
-2152 2141 0
-2152 2145 0
2153 -2147 -2148 -2142 0
-2153 2147 0
-2153 2148 0
-2153 2142 0
2154 -2142 -2149 -2142 0
-2154 2142 0
-2154 2149 0
-2154 2142 0
2155 -2146 -2150 -2144 0
-2155 2146 0
-2155 2150 0
-2155 2144 0
2156 -2142 -2144 -2146 0
-2156 2142 0
-2156 2144 0
-2156 2146 0
2157 -2147 -2144 -2147 0
-2157 2147 0
-2157 2144 0
-2157 2147 0
2158 -2150 -2141 -2146 0
-2158 2150 0
-2158 2141 0
-2158 2146 0
2159 -2149 -2150 -2148 0
-2159 2149 0
-2159 2150 0
-2159 2148 0
2160 -2150 -2141 -2142 0
-2160 2150 0
-2160 2141 0
-2160 2142 0
2161 -2151 -2152 -2154 0
-2161 2151 0
-2161 2152 0
-2161 2154 0
2162 -2156 -2155 -2160 0
-2162 2156 0
-2162 2155 0
-2162 2160 0
2163 -2155 -2158 -2158 0
-2163 2155 0
-2163 2158 0
-2163 2158 0
2164 -2157 -2151 -2156 0
-2164 2157 0
-2164 2151 0
-2164 2156 0
2165 -2155 -2160 -2152 0
-2165 2155 0
-2165 2160 0
-2165 2152 0
2166 -2160 -2153 -2154 0
-2166 2160 0
-2166 2153 0
-2166 2154 0
2167 -2154 -2153 -2151 0
-2167 2154 0
-2167 2153 0
-2167 2151 0
2168 -2153 -2158 -2155 0
-2168 2153 0
-2168 2158 0
-2168 2155 0
2169 -2151 -2152 -2158 0
-2169 2151 0
-2169 2152 0
-2169 2158 0
2170 -2152 -2155 -2159 0
-2170 2152 0
-2170 2155 0
-2170 2159 0
2171 -2167 -2166 -2163 0
-2171 2167 0
-2171 2166 0
-2171 2163 0
2172 -2162 -2168 -2170 0
-2172 2162 0
-2172 2168 0
-2172 2170 0
2173 -2166 -2168 -2163 0
-2173 2166 0
-2173 2168 0
-2173 2163 0
2174 -2161 -2166 -2168 0
-2174 2161 0
-2174 2166 0
-2174 2168 0
2175 -2161 -2162 -2162 0
-2175 2161 0
-2175 2162 0
-2175 2162 0
2176 -2168 -2162 -2169 0
-2176 2168 0
-2176 2162 0
-2176 2169 0
2177 -2169 -2165 -2161 0
-2177 2169 0
-2177 2165 0
-2177 2161 0
2178 -2164 -2169 -2163 0
-2178 2164 0
-2178 2169 0
-2178 2163 0
2179 -2166 -2161 -2167 0
-2179 2166 0
-2179 2161 0
-2179 2167 0
2180 -2162 -2166 -2162 0
-2180 2162 0
-2180 2166 0
-2180 2162 0
2181 -2171 -2176 -2173 0
-2181 2171 0
-2181 2176 0
-2181 2173 0
2182 -2178 -2177 -2175 0
-2182 2178 0
-2182 2177 0
-2182 2175 0
2183 -2176 -2176 -2173 0
-2183 2176 0
-2183 2176 0
-2183 2173 0
2184 -2173 -2172 -2179 0
-2184 2173 0
-2184 2172 0
-2184 2179 0
2185 -2174 -2176 -2176 0
-2185 2174 0
-2185 2176 0
-2185 2176 0
2186 -2174 -2172 -2176 0
-2186 2174 0
-2186 2172 0
-2186 2176 0
2187 -2177 -2178 -2180 0
-2187 2177 0
-2187 2178 0
-2187 2180 0
2188 -2173 -2177 -2172 0
-2188 2173 0
-2188 2177 0
-2188 2172 0
2189 -2175 -2171 -2180 0
-2189 2175 0
-2189 2171 0
-2189 2180 0
2190 -2177 -2176 -2175 0
-2190 2177 0
-2190 2176 0
-2190 2175 0
2191 -2186 -2182 -2188 0
-2191 2186 0
-2191 2182 0
-2191 2188 0
2192 -2188 -2181 -2189 0
-2192 2188 0
-2192 2181 0
-2192 2189 0
2193 -2190 -2185 -2181 0
-2193 2190 0
-2193 2185 0
-2193 2181 0
2194 -2190 -2183 -2186 0
-2194 2190 0
-2194 2183 0
-2194 2186 0
2195 -2186 -2184 -2188 0
-2195 2186 0
-2195 2184 0
-2195 2188 0
2196 -2184 -2189 -2182 0
-2196 2184 0
-2196 2189 0
-2196 2182 0
2197 -2189 -2186 -2190 0
-2197 2189 0
-2197 2186 0
-2197 2190 0
2198 -2189 -2186 -2185 0
-2198 2189 0
-2198 2186 0
-2198 2185 0
2199 -2186 -2181 -2187 0
-2199 2186 0
-2199 2181 0
-2199 2187 0
2200 -2184 -2186 -2185 0
-2200 2184 0
-2200 2186 0
-2200 2185 0
2201 -2197 -2196 -2191 0
-2201 2197 0
-2201 2196 0
-2201 2191 0
2202 -2194 -2191 -2191 0
-2202 2194 0
-2202 2191 0
-2202 2191 0
2203 -2193 -2191 -2191 0
-2203 2193 0
-2203 2191 0
-2203 2191 0
2204 -2200 -2197 -2197 0
-2204 2200 0
-2204 2197 0
-2204 2197 0
2205 -2192 -2195 -2195 0
-2205 2192 0
-2205 2195 0
-2205 2195 0
2206 -2192 -2200 -2197 0
-2206 2192 0
-2206 2200 0
-2206 2197 0
2207 -2200 -2197 -2194 0
-2207 2200 0
-2207 2197 0
-2207 2194 0
2208 -2195 -2195 -2200 0
-2208 2195 0
-2208 2195 0
-2208 2200 0
2209 -2193 -2199 -2197 0
-2209 2193 0
-2209 2199 0
-2209 2197 0
2210 -2192 -2198 -2196 0
-2210 2192 0
-2210 2198 0
-2210 2196 0
2211 -2207 -2202 -2204 0
-2211 2207 0
-2211 2202 0
-2211 2204 0
2212 -2204 -2209 -2206 0
-2212 2204 0
-2212 2209 0
-2212 2206 0
2213 -2205 -2209 -2201 0
-2213 2205 0
-2213 2209 0
-2213 2201 0
2214 -2206 -2202 -2207 0
-2214 2206 0
-2214 2202 0
-2214 2207 0
2215 -2209 -2205 -2209 0
-2215 2209 0
-2215 2205 0
-2215 2209 0
2216 -2204 -2210 -2206 0
-2216 2204 0
-2216 2210 0
-2216 2206 0
2217 -2208 -2201 -2203 0
-2217 2208 0
-2217 2201 0
-2217 2203 0
2218 -2202 -2205 -2210 0
-2218 2202 0
-2218 2205 0
-2218 2210 0
2219 -2205 -2207 -2207 0
-2219 2205 0
-2219 2207 0
-2219 2207 0
2220 -2205 -2206 -2201 0
-2220 2205 0
-2220 2206 0
-2220 2201 0
2221 -2213 -2211 -2212 0
-2221 2213 0
-2221 2211 0
-2221 2212 0
2222 -2217 -2214 -2214 0
-2222 2217 0
-2222 2214 0
-2222 2214 0
2223 -2214 -2216 -2214 0
-2223 2214 0
-2223 2216 0
-2223 2214 0
2224 -2220 -2214 -2220 0
-2224 2220 0
-2224 2214 0
-2224 2220 0
2225 -2212 -2211 -2215 0
-2225 2212 0
-2225 2211 0
-2225 2215 0
2226 -2214 -2214 -2216 0
-2226 2214 0
-2226 2214 0
-2226 2216 0
2227 -2218 -2220 -2214 0
-2227 2218 0
-2227 2220 0
-2227 2214 0
2228 -2217 -2219 -2213 0
-2228 2217 0
-2228 2219 0
-2228 2213 0
2229 -2212 -2220 -2219 0
-2229 2212 0
-2229 2220 0
-2229 2219 0
2230 -2213 -2213 -2214 0
-2230 2213 0
-2230 2213 0
-2230 2214 0
2231 -2225 -2229 -2222 0
-2231 2225 0
-2231 2229 0
-2231 2222 0
2232 -2229 -2230 -2230 0
-2232 2229 0
-2232 2230 0
-2232 2230 0
2233 -2223 -2221 -2228 0
-2233 2223 0
-2233 2221 0
-2233 2228 0
2234 -2221 -2226 -2223 0
-2234 2221 0
-2234 2226 0
-2234 2223 0
2235 -2225 -2227 -2226 0
-2235 2225 0
-2235 2227 0
-2235 2226 0
2236 -2223 -2226 -2227 0
-2236 2223 0
-2236 2226 0
-2236 2227 0
2237 -2229 -2227 -2226 0
-2237 2229 0
-2237 2227 0
-2237 2226 0
2238 -2225 -2222 -2222 0
-2238 2225 0
-2238 2222 0
-2238 2222 0
2239 -2225 -2229 -2227 0
-2239 2225 0
-2239 2229 0
-2239 2227 0
2240 -2229 -2224 -2222 0
-2240 2229 0
-2240 2224 0
-2240 2222 0
2241 -2240 -2233 -2233 0
-2241 2240 0
-2241 2233 0
-2241 2233 0
2242 -2237 -2235 -2236 0
-2242 2237 0
-2242 2235 0
-2242 2236 0
2243 -2233 -2231 -2237 0
-2243 2233 0
-2243 2231 0
-2243 2237 0
2244 -2236 -2238 -2238 0
-2244 2236 0
-2244 2238 0
-2244 2238 0
2245 -2231 -2232 -2239 0
-2245 2231 0
-2245 2232 0
-2245 2239 0
2246 -2232 -2239 -2235 0
-2246 2232 0
-2246 2239 0
-2246 2235 0
2247 -2233 -2231 -2239 0
-2247 2233 0
-2247 2231 0
-2247 2239 0
2248 -2239 -2233 -2238 0
-2248 2239 0
-2248 2233 0
-2248 2238 0
2249 -2231 -2235 -2240 0
-2249 2231 0
-2249 2235 0
-2249 2240 0
2250 -2239 -2238 -2238 0
-2250 2239 0
-2250 2238 0
-2250 2238 0
2251 -2246 -2245 -2243 0
-2251 2246 0
-2251 2245 0
-2251 2243 0
2252 -2248 -2243 -2242 0
-2252 2248 0
-2252 2243 0
-2252 2242 0
2253 -2246 -2243 -2242 0
-2253 2246 0
-2253 2243 0
-2253 2242 0
2254 -2247 -2244 -2243 0
-2254 2247 0
-2254 2244 0
-2254 2243 0
2255 -2248 -2242 -2241 0
-2255 2248 0
-2255 2242 0
-2255 2241 0
2256 -2245 -2244 -2249 0
-2256 2245 0
-2256 2244 0
-2256 2249 0
2257 -2246 -2250 -2247 0
-2257 2246 0
-2257 2250 0
-2257 2247 0
2258 -2246 -2243 -2248 0
-2258 2246 0
-2258 2243 0
-2258 2248 0
2259 -2244 -2246 -2247 0
-2259 2244 0
-2259 2246 0
-2259 2247 0
2260 -2249 -2247 -2246 0
-2260 2249 0
-2260 2247 0
-2260 2246 0
2261 -2256 -2259 -2253 0
-2261 2256 0
-2261 2259 0
-2261 2253 0
2262 -2256 -2257 -2256 0
-2262 2256 0
-2262 2257 0
-2262 2256 0
2263 -2259 -2260 -2255 0
-2263 2259 0
-2263 2260 0
-2263 2255 0
2264 -2258 -2251 -2254 0
-2264 2258 0
-2264 2251 0
-2264 2254 0
2265 -2256 -2255 -2257 0
-2265 2256 0
-2265 2255 0
-2265 2257 0
2266 -2255 -2254 -2251 0
-2266 2255 0
-2266 2254 0
-2266 2251 0
2267 -2253 -2258 -2252 0
-2267 2253 0
-2267 2258 0
-2267 2252 0
2268 -2260 -2253 -2257 0
-2268 2260 0
-2268 2253 0
-2268 2257 0
2269 -2259 -2257 -2254 0
-2269 2259 0
-2269 2257 0
-2269 2254 0
2270 -2253 -2260 -2259 0
-2270 2253 0
-2270 2260 0
-2270 2259 0
2271 -2270 -2262 -2268 0
-2271 2270 0
-2271 2262 0
-2271 2268 0
2272 -2263 -2268 -2268 0
-2272 2263 0
-2272 2268 0
-2272 2268 0
2273 -2265 -2264 -2269 0
-2273 2265 0
-2273 2264 0
-2273 2269 0
2274 -2269 -2263 -2267 0
-2274 2269 0
-2274 2263 0
-2274 2267 0
2275 -2270 -2264 -2264 0
-2275 2270 0
-2275 2264 0
-2275 2264 0
2276 -2268 -2261 -2266 0
-2276 2268 0
-2276 2261 0
-2276 2266 0
2277 -2267 -2265 -2265 0
-2277 2267 0
-2277 2265 0
-2277 2265 0
2278 -2263 -2265 -2264 0
-2278 2263 0
-2278 2265 0
-2278 2264 0
2279 -2269 -2270 -2263 0
-2279 2269 0
-2279 2270 0
-2279 2263 0
2280 -2266 -2265 -2263 0
-2280 2266 0
-2280 2265 0
-2280 2263 0
2281 -2279 -2276 -2273 0
-2281 2279 0
-2281 2276 0
-2281 2273 0
2282 -2276 -2276 -2278 0
-2282 2276 0
-2282 2276 0
-2282 2278 0
2283 -2277 -2277 -2277 0
-2283 2277 0
-2283 2277 0
-2283 2277 0
2284 -2277 -2274 -2273 0
-2284 2277 0
-2284 2274 0
-2284 2273 0
2285 -2278 -2276 -2271 0
-2285 2278 0
-2285 2276 0
-2285 2271 0
2286 -2278 -2277 -2279 0
-2286 2278 0
-2286 2277 0
-2286 2279 0
2287 -2272 -2274 -2277 0
-2287 2272 0
-2287 2274 0
-2287 2277 0
2288 -2280 -2272 -2279 0
-2288 2280 0
-2288 2272 0
-2288 2279 0
2289 -2274 -2277 -2278 0
-2289 2274 0
-2289 2277 0
-2289 2278 0
2290 -2280 -2280 -2275 0
-2290 2280 0
-2290 2280 0
-2290 2275 0
2291 -2286 -2281 -2284 0
-2291 2286 0
-2291 2281 0
-2291 2284 0
2292 -2290 -2283 -2287 0
-2292 2290 0
-2292 2283 0
-2292 2287 0
2293 -2283 -2286 -2288 0
-2293 2283 0
-2293 2286 0
-2293 2288 0
2294 -2289 -2287 -2284 0
-2294 2289 0
-2294 2287 0
-2294 2284 0
2295 -2287 -2288 -2282 0
-2295 2287 0
-2295 2288 0
-2295 2282 0
2296 -2285 -2287 -2281 0
-2296 2285 0
-2296 2287 0
-2296 2281 0
2297 -2289 -2287 -2290 0
-2297 2289 0
-2297 2287 0
-2297 2290 0
2298 -2285 -2282 -2290 0
-2298 2285 0
-2298 2282 0
-2298 2290 0
2299 -2287 -2283 -2282 0
-2299 2287 0
-2299 2283 0
-2299 2282 0
2300 -2282 -2283 -2287 0
-2300 2282 0
-2300 2283 0
-2300 2287 0
2301 -2296 -2293 -2294 0
-2301 2296 0
-2301 2293 0
-2301 2294 0
2302 -2298 -2298 -2298 0
-2302 2298 0
-2302 2298 0
-2302 2298 0
2303 -2300 -2291 -2294 0
-2303 2300 0
-2303 2291 0
-2303 2294 0
2304 -2300 -2294 -2297 0
-2304 2300 0
-2304 2294 0
-2304 2297 0
2305 -2291 -2295 -2293 0
-2305 2291 0
-2305 2295 0
-2305 2293 0
2306 -2296 -2292 -2294 0
-2306 2296 0
-2306 2292 0
-2306 2294 0
2307 -2292 -2295 -2298 0
-2307 2292 0
-2307 2295 0
-2307 2298 0
2308 -2294 -2298 -2294 0
-2308 2294 0
-2308 2298 0
-2308 2294 0
2309 -2292 -2291 -2296 0
-2309 2292 0
-2309 2291 0
-2309 2296 0
2310 -2294 -2291 -2291 0
-2310 2294 0
-2310 2291 0
-2310 2291 0
2311 -2308 -2310 -2307 0
-2311 2308 0
-2311 2310 0
-2311 2307 0
2312 -2307 -2305 -2307 0
-2312 2307 0
-2312 2305 0
-2312 2307 0
2313 -2301 -2301 -2309 0
-2313 2301 0
-2313 2301 0
-2313 2309 0
2314 -2310 -2303 -2306 0
-2314 2310 0
-2314 2303 0
-2314 2306 0
2315 -2302 -2308 -2310 0
-2315 2302 0
-2315 2308 0
-2315 2310 0
2316 -2306 -2304 -2308 0
-2316 2306 0
-2316 2304 0
-2316 2308 0
2317 -2301 -2301 -2303 0
-2317 2301 0
-2317 2301 0
-2317 2303 0
2318 -2304 -2310 -2308 0
-2318 2304 0
-2318 2310 0
-2318 2308 0
2319 -2302 -2305 -2306 0
-2319 2302 0
-2319 2305 0
-2319 2306 0
2320 -2309 -2306 -2303 0
-2320 2309 0
-2320 2306 0
-2320 2303 0
2321 -2312 -2318 -2316 0
-2321 2312 0
-2321 2318 0
-2321 2316 0
2322 -2313 -2314 -2312 0
-2322 2313 0
-2322 2314 0
-2322 2312 0
2323 -2315 -2311 -2319 0
-2323 2315 0
-2323 2311 0
-2323 2319 0
2324 -2316 -2311 -2311 0
-2324 2316 0
-2324 2311 0
-2324 2311 0
2325 -2315 -2313 -2315 0
-2325 2315 0
-2325 2313 0
-2325 2315 0
2326 -2315 -2313 -2315 0
-2326 2315 0
-2326 2313 0
-2326 2315 0
2327 -2319 -2319 -2311 0
-2327 2319 0
-2327 2319 0
-2327 2311 0
2328 -2319 -2313 -2320 0
-2328 2319 0
-2328 2313 0
-2328 2320 0
2329 -2320 -2312 -2318 0
-2329 2320 0
-2329 2312 0
-2329 2318 0
2330 -2316 -2319 -2317 0
-2330 2316 0
-2330 2319 0
-2330 2317 0
2331 -2322 -2330 -2321 0
-2331 2322 0
-2331 2330 0
-2331 2321 0
2332 -2324 -2328 -2324 0
-2332 2324 0
-2332 2328 0
-2332 2324 0
2333 -2329 -2325 -2330 0
-2333 2329 0
-2333 2325 0
-2333 2330 0
2334 -2325 -2321 -2326 0
-2334 2325 0
-2334 2321 0
-2334 2326 0
2335 -2330 -2324 -2327 0
-2335 2330 0
-2335 2324 0
-2335 2327 0
2336 -2326 -2325 -2321 0
-2336 2326 0
-2336 2325 0
-2336 2321 0
2337 -2325 -2326 -2324 0
-2337 2325 0
-2337 2326 0
-2337 2324 0
2338 -2321 -2325 -2322 0
-2338 2321 0
-2338 2325 0
-2338 2322 0
2339 -2321 -2327 -2324 0
-2339 2321 0
-2339 2327 0
-2339 2324 0
2340 -2324 -2321 -2330 0
-2340 2324 0
-2340 2321 0
-2340 2330 0
2341 -2337 -2339 -2334 0
-2341 2337 0
-2341 2339 0
-2341 2334 0
2342 -2337 -2337 -2334 0
-2342 2337 0
-2342 2337 0
-2342 2334 0
2343 -2333 -2336 -2335 0
-2343 2333 0
-2343 2336 0
-2343 2335 0
2344 -2337 -2340 -2338 0
-2344 2337 0
-2344 2340 0
-2344 2338 0
2345 -2332 -2331 -2331 0
-2345 2332 0
-2345 2331 0
-2345 2331 0
2346 -2335 -2336 -2338 0
-2346 2335 0
-2346 2336 0
-2346 2338 0
2347 -2332 -2339 -2338 0
-2347 2332 0
-2347 2339 0
-2347 2338 0
2348 -2333 -2337 -2332 0
-2348 2333 0
-2348 2337 0
-2348 2332 0
2349 -2333 -2335 -2331 0
-2349 2333 0
-2349 2335 0
-2349 2331 0
2350 -2331 -2336 -2333 0
-2350 2331 0
-2350 2336 0
-2350 2333 0
2351 -2348 -2347 -2348 0
-2351 2348 0
-2351 2347 0
-2351 2348 0
2352 -2343 -2345 -2343 0
-2352 2343 0
-2352 2345 0
-2352 2343 0
2353 -2343 -2345 -2348 0
-2353 2343 0
-2353 2345 0
-2353 2348 0
2354 -2347 -2349 -2342 0
-2354 2347 0
-2354 2349 0
-2354 2342 0
2355 -2342 -2347 -2342 0
-2355 2342 0
-2355 2347 0
-2355 2342 0
2356 -2348 -2342 -2343 0
-2356 2348 0
-2356 2342 0
-2356 2343 0
2357 -2341 -2349 -2345 0
-2357 2341 0
-2357 2349 0
-2357 2345 0
2358 -2350 -2346 -2344 0
-2358 2350 0
-2358 2346 0
-2358 2344 0
2359 -2347 -2344 -2343 0
-2359 2347 0
-2359 2344 0
-2359 2343 0
2360 -2345 -2346 -2343 0
-2360 2345 0
-2360 2346 0
-2360 2343 0
2361 -2360 -2354 -2351 0
-2361 2360 0
-2361 2354 0
-2361 2351 0
2362 -2354 -2353 -2358 0
-2362 2354 0
-2362 2353 0
-2362 2358 0
2363 -2357 -2356 -2356 0
-2363 2357 0
-2363 2356 0
-2363 2356 0
2364 -2351 -2356 -2352 0
-2364 2351 0
-2364 2356 0
-2364 2352 0
2365 -2356 -2357 -2357 0
-2365 2356 0
-2365 2357 0
-2365 2357 0
2366 -2352 -2357 -2354 0
-2366 2352 0
-2366 2357 0
-2366 2354 0
2367 -2360 -2354 -2351 0
-2367 2360 0
-2367 2354 0
-2367 2351 0
2368 -2359 -2356 -2353 0
-2368 2359 0
-2368 2356 0
-2368 2353 0
2369 -2356 -2354 -2351 0
-2369 2356 0
-2369 2354 0
-2369 2351 0
2370 -2356 -2353 -2355 0
-2370 2356 0
-2370 2353 0
-2370 2355 0
2371 -2365 -2362 -2362 0
-2371 2365 0
-2371 2362 0
-2371 2362 0
2372 -2370 -2367 -2366 0
-2372 2370 0
-2372 2367 0
-2372 2366 0
2373 -2361 -2366 -2366 0
-2373 2361 0
-2373 2366 0
-2373 2366 0
2374 -2363 -2362 -2368 0
-2374 2363 0
-2374 2362 0
-2374 2368 0
2375 -2369 -2363 -2362 0
-2375 2369 0
-2375 2363 0
-2375 2362 0
2376 -2366 -2368 -2369 0
-2376 2366 0
-2376 2368 0
-2376 2369 0
2377 -2369 -2361 -2365 0
-2377 2369 0
-2377 2361 0
-2377 2365 0
2378 -2364 -2370 -2362 0
-2378 2364 0
-2378 2370 0
-2378 2362 0
2379 -2361 -2366 -2362 0
-2379 2361 0
-2379 2366 0
-2379 2362 0
2380 -2365 -2367 -2368 0
-2380 2365 0
-2380 2367 0
-2380 2368 0
2381 -2371 -2373 -2377 0
-2381 2371 0
-2381 2373 0
-2381 2377 0
2382 -2375 -2374 -2377 0
-2382 2375 0
-2382 2374 0
-2382 2377 0
2383 -2377 -2379 -2371 0
-2383 2377 0
-2383 2379 0
-2383 2371 0
2384 -2376 -2380 -2380 0
-2384 2376 0
-2384 2380 0
-2384 2380 0
2385 -2380 -2373 -2377 0
-2385 2380 0
-2385 2373 0
-2385 2377 0
2386 -2372 -2372 -2376 0
-2386 2372 0
-2386 2372 0
-2386 2376 0
2387 -2378 -2374 -2371 0
-2387 2378 0
-2387 2374 0
-2387 2371 0
2388 -2376 -2371 -2380 0
-2388 2376 0
-2388 2371 0
-2388 2380 0
2389 -2380 -2371 -2377 0
-2389 2380 0
-2389 2371 0
-2389 2377 0
2390 -2373 -2374 -2372 0
-2390 2373 0
-2390 2374 0
-2390 2372 0
2391 -2386 -2385 -2387 0
-2391 2386 0
-2391 2385 0
-2391 2387 0
2392 -2386 -2381 -2381 0
-2392 2386 0
-2392 2381 0
-2392 2381 0
2393 -2385 -2390 -2385 0
-2393 2385 0
-2393 2390 0
-2393 2385 0
2394 -2387 -2383 -2388 0
-2394 2387 0
-2394 2383 0
-2394 2388 0
2395 -2382 -2385 -2384 0
-2395 2382 0
-2395 2385 0
-2395 2384 0
2396 -2386 -2387 -2383 0
-2396 2386 0
-2396 2387 0
-2396 2383 0
2397 -2385 -2382 -2382 0
-2397 2385 0
-2397 2382 0
-2397 2382 0
2398 -2386 -2387 -2390 0
-2398 2386 0
-2398 2387 0
-2398 2390 0
2399 -2387 -2385 -2385 0
-2399 2387 0
-2399 2385 0
-2399 2385 0
2400 -2385 -2390 -2389 0
-2400 2385 0
-2400 2390 0
-2400 2389 0
2401 -2399 -2395 -2400 0
-2401 2399 0
-2401 2395 0
-2401 2400 0
2402 -2398 -2392 -2395 0
-2402 2398 0
-2402 2392 0
-2402 2395 0
2403 -2393 -2396 -2395 0
-2403 2393 0
-2403 2396 0
-2403 2395 0
2404 -2399 -2395 -2400 0
-2404 2399 0
-2404 2395 0
-2404 2400 0
2405 -2392 -2396 -2396 0
-2405 2392 0
-2405 2396 0
-2405 2396 0
2406 -2393 -2398 -2397 0
-2406 2393 0
-2406 2398 0
-2406 2397 0
2407 -2393 -2399 -2392 0
-2407 2393 0
-2407 2399 0
-2407 2392 0
2408 -2395 -2392 -2398 0
-2408 2395 0
-2408 2392 0
-2408 2398 0
2409 -2398 -2397 -2393 0
-2409 2398 0
-2409 2397 0
-2409 2393 0
2410 -2398 -2395 -2392 0
-2410 2398 0
-2410 2395 0
-2410 2392 0
2411 -2410 -2407 -2405 0
-2411 2410 0
-2411 2407 0
-2411 2405 0
2412 -2405 -2405 -2404 0
-2412 2405 0
-2412 2405 0
-2412 2404 0
2413 -2403 -2404 -2406 0
-2413 2403 0
-2413 2404 0
-2413 2406 0
2414 -2402 -2406 -2406 0
-2414 2402 0
-2414 2406 0
-2414 2406 0
2415 -2410 -2403 -2404 0
-2415 2410 0
-2415 2403 0
-2415 2404 0
2416 -2408 -2402 -2403 0
-2416 2408 0
-2416 2402 0
-2416 2403 0
2417 -2410 -2409 -2402 0
-2417 2410 0
-2417 2409 0
-2417 2402 0
2418 -2406 -2401 -2405 0
-2418 2406 0
-2418 2401 0
-2418 2405 0
2419 -2410 -2402 -2406 0
-2419 2410 0
-2419 2402 0
-2419 2406 0
2420 -2406 -2401 -2410 0
-2420 2406 0
-2420 2401 0
-2420 2410 0
2421 -2414 -2419 -2416 0
-2421 2414 0
-2421 2419 0
-2421 2416 0
2422 -2416 -2419 -2417 0
-2422 2416 0
-2422 2419 0
-2422 2417 0
2423 -2411 -2411 -2420 0
-2423 2411 0
-2423 2411 0
-2423 2420 0
2424 -2420 -2411 -2412 0
-2424 2420 0
-2424 2411 0
-2424 2412 0
2425 -2415 -2420 -2419 0
-2425 2415 0
-2425 2420 0
-2425 2419 0
2426 -2413 -2420 -2411 0
-2426 2413 0
-2426 2420 0
-2426 2411 0
2427 -2415 -2416 -2413 0
-2427 2415 0
-2427 2416 0
-2427 2413 0
2428 -2412 -2417 -2418 0
-2428 2412 0
-2428 2417 0
-2428 2418 0
2429 -2414 -2416 -2417 0
-2429 2414 0
-2429 2416 0
-2429 2417 0
2430 -2413 -2416 -2420 0
-2430 2413 0
-2430 2416 0
-2430 2420 0
2431 -2427 -2429 -2428 0
-2431 2427 0
-2431 2429 0
-2431 2428 0
2432 -2423 -2429 -2421 0
-2432 2423 0
-2432 2429 0
-2432 2421 0
2433 -2424 -2421 -2430 0
-2433 2424 0
-2433 2421 0
-2433 2430 0
2434 -2423 -2430 -2429 0
-2434 2423 0
-2434 2430 0
-2434 2429 0
2435 -2422 -2429 -2430 0
-2435 2422 0
-2435 2429 0
-2435 2430 0
2436 -2427 -2428 -2424 0
-2436 2427 0
-2436 2428 0
-2436 2424 0
2437 -2427 -2429 -2425 0
-2437 2427 0
-2437 2429 0
-2437 2425 0
2438 -2422 -2425 -2426 0
-2438 2422 0
-2438 2425 0
-2438 2426 0
2439 -2422 -2423 -2425 0
-2439 2422 0
-2439 2423 0
-2439 2425 0
2440 -2427 -2424 -2429 0
-2440 2427 0
-2440 2424 0
-2440 2429 0
2441 -2433 -2438 -2435 0
-2441 2433 0
-2441 2438 0
-2441 2435 0
2442 -2435 -2436 -2438 0
-2442 2435 0
-2442 2436 0
-2442 2438 0
2443 -2439 -2439 -2431 0
-2443 2439 0
-2443 2439 0
-2443 2431 0
2444 -2440 -2437 -2440 0
-2444 2440 0
-2444 2437 0
-2444 2440 0
2445 -2437 -2440 -2434 0
-2445 2437 0
-2445 2440 0
-2445 2434 0
2446 -2433 -2438 -2437 0
-2446 2433 0
-2446 2438 0
-2446 2437 0
2447 -2438 -2434 -2438 0
-2447 2438 0
-2447 2434 0
-2447 2438 0
2448 -2436 -2437 -2436 0
-2448 2436 0
-2448 2437 0
-2448 2436 0
2449 -2440 -2440 -2433 0
-2449 2440 0
-2449 2440 0
-2449 2433 0
2450 -2435 -2431 -2431 0
-2450 2435 0
-2450 2431 0
-2450 2431 0
2451 -2450 -2448 -2450 0
-2451 2450 0
-2451 2448 0
-2451 2450 0
2452 -2447 -2449 -2445 0
-2452 2447 0
-2452 2449 0
-2452 2445 0
2453 -2443 -2447 -2446 0
-2453 2443 0
-2453 2447 0
-2453 2446 0
2454 -2442 -2446 -2449 0
-2454 2442 0
-2454 2446 0
-2454 2449 0
2455 -2443 -2450 -2448 0
-2455 2443 0
-2455 2450 0
-2455 2448 0
2456 -2450 -2442 -2444 0
-2456 2450 0
-2456 2442 0
-2456 2444 0
2457 -2449 -2447 -2449 0
-2457 2449 0
-2457 2447 0
-2457 2449 0
2458 -2449 -2449 -2443 0
-2458 2449 0
-2458 2449 0
-2458 2443 0
2459 -2447 -2441 -2444 0
-2459 2447 0
-2459 2441 0
-2459 2444 0
2460 -2448 -2449 -2441 0
-2460 2448 0
-2460 2449 0
-2460 2441 0
2461 -2451 -2452 -2458 0
-2461 2451 0
-2461 2452 0
-2461 2458 0
2462 -2453 -2455 -2459 0
-2462 2453 0
-2462 2455 0
-2462 2459 0
2463 -2457 -2456 -2455 0
-2463 2457 0
-2463 2456 0
-2463 2455 0
2464 -2459 -2451 -2459 0
-2464 2459 0
-2464 2451 0
-2464 2459 0
2465 -2460 -2457 -2454 0
-2465 2460 0
-2465 2457 0
-2465 2454 0
2466 -2453 -2459 -2459 0
-2466 2453 0
-2466 2459 0
-2466 2459 0
2467 -2455 -2453 -2453 0
-2467 2455 0
-2467 2453 0
-2467 2453 0
2468 -2455 -2452 -2453 0
-2468 2455 0
-2468 2452 0
-2468 2453 0
2469 -2451 -2452 -2452 0
-2469 2451 0
-2469 2452 0
-2469 2452 0
2470 -2453 -2458 -2459 0
-2470 2453 0
-2470 2458 0
-2470 2459 0
2471 -2464 -2466 -2467 0
-2471 2464 0
-2471 2466 0
-2471 2467 0
2472 -2461 -2463 -2467 0
-2472 2461 0
-2472 2463 0
-2472 2467 0
2473 -2468 -2464 -2461 0
-2473 2468 0
-2473 2464 0
-2473 2461 0
2474 -2467 -2461 -2467 0
-2474 2467 0
-2474 2461 0
-2474 2467 0
2475 -2467 -2467 -2467 0
-2475 2467 0
-2475 2467 0
-2475 2467 0
2476 -2462 -2470 -2465 0
-2476 2462 0
-2476 2470 0
-2476 2465 0
2477 -2469 -2462 -2468 0
-2477 2469 0
-2477 2462 0
-2477 2468 0
2478 -2466 -2466 -2467 0
-2478 2466 0
-2478 2466 0
-2478 2467 0
2479 -2467 -2470 -2464 0
-2479 2467 0
-2479 2470 0
-2479 2464 0
2480 -2462 -2470 -2464 0
-2480 2462 0
-2480 2470 0
-2480 2464 0
2481 -2475 -2479 -2476 0
-2481 2475 0
-2481 2479 0
-2481 2476 0
2482 -2471 -2473 -2474 0
-2482 2471 0
-2482 2473 0
-2482 2474 0
2483 -2472 -2479 -2474 0
-2483 2472 0
-2483 2479 0
-2483 2474 0
2484 -2479 -2476 -2477 0
-2484 2479 0
-2484 2476 0
-2484 2477 0
2485 -2478 -2476 -2478 0
-2485 2478 0
-2485 2476 0
-2485 2478 0
2486 -2472 -2476 -2479 0
-2486 2472 0
-2486 2476 0
-2486 2479 0
2487 -2477 -2478 -2475 0
-2487 2477 0
-2487 2478 0
-2487 2475 0
2488 -2474 -2476 -2471 0
-2488 2474 0
-2488 2476 0
-2488 2471 0
2489 -2480 -2476 -2474 0
-2489 2480 0
-2489 2476 0
-2489 2474 0
2490 -2480 -2479 -2478 0
-2490 2480 0
-2490 2479 0
-2490 2478 0
2491 -2488 -2487 -2488 0
-2491 2488 0
-2491 2487 0
-2491 2488 0
2492 -2486 -2481 -2483 0
-2492 2486 0
-2492 2481 0
-2492 2483 0
2493 -2481 -2489 -2485 0
-2493 2481 0
-2493 2489 0
-2493 2485 0
2494 -2485 -2484 -2482 0
-2494 2485 0
-2494 2484 0
-2494 2482 0
2495 -2487 -2486 -2481 0
-2495 2487 0
-2495 2486 0
-2495 2481 0
2496 -2489 -2486 -2486 0
-2496 2489 0
-2496 2486 0
-2496 2486 0
2497 -2490 -2488 -2487 0
-2497 2490 0
-2497 2488 0
-2497 2487 0
2498 -2487 -2481 -2484 0
-2498 2487 0
-2498 2481 0
-2498 2484 0
2499 -2490 -2490 -2481 0
-2499 2490 0
-2499 2490 0
-2499 2481 0
2500 -2487 -2488 -2483 0
-2500 2487 0
-2500 2488 0
-2500 2483 0
2501 -2498 -2497 -2492 0
-2501 2498 0
-2501 2497 0
-2501 2492 0
2502 -2499 -2500 -2500 0
-2502 2499 0
-2502 2500 0
-2502 2500 0
2503 -2492 -2500 -2500 0
-2503 2492 0
-2503 2500 0
-2503 2500 0
2504 -2496 -2497 -2496 0
-2504 2496 0
-2504 2497 0
-2504 2496 0
2505 -2492 -2491 -2498 0
-2505 2492 0
-2505 2491 0
-2505 2498 0
2506 -2495 -2495 -2499 0
-2506 2495 0
-2506 2495 0
-2506 2499 0
2507 -2500 -2499 -2495 0
-2507 2500 0
-2507 2499 0
-2507 2495 0
2508 -2495 -2500 -2494 0
-2508 2495 0
-2508 2500 0
-2508 2494 0
2509 -2491 -2496 -2494 0
-2509 2491 0
-2509 2496 0
-2509 2494 0
2510 -2497 -2498 -2497 0
-2510 2497 0
-2510 2498 0
-2510 2497 0
2511 -2510 -2509 -2507 0
-2511 2510 0
-2511 2509 0
-2511 2507 0
2512 -2506 -2507 -2501 0
-2512 2506 0
-2512 2507 0
-2512 2501 0
2513 -2509 -2501 -2504 0
-2513 2509 0
-2513 2501 0
-2513 2504 0
2514 -2508 -2510 -2505 0
-2514 2508 0
-2514 2510 0
-2514 2505 0
2515 -2510 -2504 -2508 0
-2515 2510 0
-2515 2504 0
-2515 2508 0
2516 -2501 -2502 -2501 0
-2516 2501 0
-2516 2502 0
-2516 2501 0
2517 -2501 -2504 -2501 0
-2517 2501 0
-2517 2504 0
-2517 2501 0
2518 -2509 -2504 -2502 0
-2518 2509 0
-2518 2504 0
-2518 2502 0
2519 -2510 -2502 -2509 0
-2519 2510 0
-2519 2502 0
-2519 2509 0
2520 -2501 -2508 -2509 0
-2520 2501 0
-2520 2508 0
-2520 2509 0
2521 -2514 -2516 -2520 0
-2521 2514 0
-2521 2516 0
-2521 2520 0
2522 -2517 -2513 -2520 0
-2522 2517 0
-2522 2513 0
-2522 2520 0
2523 -2520 -2512 -2512 0
-2523 2520 0
-2523 2512 0
-2523 2512 0
2524 -2518 -2511 -2511 0
-2524 2518 0
-2524 2511 0
-2524 2511 0
2525 -2513 -2513 -2520 0
-2525 2513 0
-2525 2513 0
-2525 2520 0
2526 -2511 -2513 -2519 0
-2526 2511 0
-2526 2513 0
-2526 2519 0
2527 -2513 -2515 -2512 0
-2527 2513 0
-2527 2515 0
-2527 2512 0
2528 -2511 -2517 -2514 0
-2528 2511 0
-2528 2517 0
-2528 2514 0
2529 -2513 -2515 -2517 0
-2529 2513 0
-2529 2515 0
-2529 2517 0
2530 -2516 -2518 -2520 0
-2530 2516 0
-2530 2518 0
-2530 2520 0
2531 -2523 -2521 -2530 0
-2531 2523 0
-2531 2521 0
-2531 2530 0
2532 -2524 -2522 -2529 0
-2532 2524 0
-2532 2522 0
-2532 2529 0
2533 -2526 -2524 -2529 0
-2533 2526 0
-2533 2524 0
-2533 2529 0
2534 -2526 -2529 -2525 0
-2534 2526 0
-2534 2529 0
-2534 2525 0
2535 -2522 -2529 -2523 0
-2535 2522 0
-2535 2529 0
-2535 2523 0
2536 -2525 -2528 -2530 0
-2536 2525 0
-2536 2528 0
-2536 2530 0
2537 -2527 -2525 -2530 0
-2537 2527 0
-2537 2525 0
-2537 2530 0
2538 -2521 -2528 -2524 0
-2538 2521 0
-2538 2528 0
-2538 2524 0
2539 -2527 -2530 -2522 0
-2539 2527 0
-2539 2530 0
-2539 2522 0
2540 -2528 -2529 -2529 0
-2540 2528 0
-2540 2529 0
-2540 2529 0
2541 -2538 -2537 -2538 0
-2541 2538 0
-2541 2537 0
-2541 2538 0
2542 -2535 -2538 -2538 0
-2542 2535 0
-2542 2538 0
-2542 2538 0
2543 -2539 -2538 -2536 0
-2543 2539 0
-2543 2538 0
-2543 2536 0
2544 -2539 -2531 -2533 0
-2544 2539 0
-2544 2531 0
-2544 2533 0
2545 -2540 -2540 -2537 0
-2545 2540 0
-2545 2540 0
-2545 2537 0
2546 -2540 -2539 -2532 0
-2546 2540 0
-2546 2539 0
-2546 2532 0
2547 -2538 -2534 -2531 0
-2547 2538 0
-2547 2534 0
-2547 2531 0
2548 -2533 -2536 -2539 0
-2548 2533 0
-2548 2536 0
-2548 2539 0
2549 -2536 -2536 -2540 0
-2549 2536 0
-2549 2536 0
-2549 2540 0
2550 -2538 -2533 -2534 0
-2550 2538 0
-2550 2533 0
-2550 2534 0
2551 -2542 -2544 -2550 0
-2551 2542 0
-2551 2544 0
-2551 2550 0
2552 -2544 -2541 -2541 0
-2552 2544 0
-2552 2541 0
-2552 2541 0
2553 -2541 -2550 -2542 0
-2553 2541 0
-2553 2550 0
-2553 2542 0
2554 -2548 -2550 -2542 0
-2554 2548 0
-2554 2550 0
-2554 2542 0
2555 -2544 -2545 -2549 0
-2555 2544 0
-2555 2545 0
-2555 2549 0
2556 -2541 -2547 -2546 0
-2556 2541 0
-2556 2547 0
-2556 2546 0
2557 -2543 -2545 -2542 0
-2557 2543 0
-2557 2545 0
-2557 2542 0
2558 -2548 -2549 -2549 0
-2558 2548 0
-2558 2549 0
-2558 2549 0
2559 -2541 -2548 -2547 0
-2559 2541 0
-2559 2548 0
-2559 2547 0
2560 -2546 -2542 -2544 0
-2560 2546 0
-2560 2542 0
-2560 2544 0
2561 -2554 -2554 -2558 0
-2561 2554 0
-2561 2554 0
-2561 2558 0
2562 -2552 -2552 -2559 0
-2562 2552 0
-2562 2552 0
-2562 2559 0
2563 -2553 -2555 -2551 0
-2563 2553 0
-2563 2555 0
-2563 2551 0
2564 -2558 -2557 -2552 0
-2564 2558 0
-2564 2557 0
-2564 2552 0
2565 -2555 -2557 -2558 0
-2565 2555 0
-2565 2557 0
-2565 2558 0
2566 -2560 -2560 -2557 0
-2566 2560 0
-2566 2560 0
-2566 2557 0
2567 -2560 -2553 -2554 0
-2567 2560 0
-2567 2553 0
-2567 2554 0
2568 -2554 -2552 -2555 0
-2568 2554 0
-2568 2552 0
-2568 2555 0
2569 -2560 -2558 -2558 0
-2569 2560 0
-2569 2558 0
-2569 2558 0
2570 -2556 -2555 -2556 0
-2570 2556 0
-2570 2555 0
-2570 2556 0
2571 -2564 -2562 -2563 0
-2571 2564 0
-2571 2562 0
-2571 2563 0
2572 -2568 -2569 -2567 0
-2572 2568 0
-2572 2569 0
-2572 2567 0
2573 -2568 -2563 -2566 0
-2573 2568 0
-2573 2563 0
-2573 2566 0
2574 -2562 -2570 -2567 0
-2574 2562 0
-2574 2570 0
-2574 2567 0
2575 -2566 -2565 -2569 0
-2575 2566 0
-2575 2565 0
-2575 2569 0
2576 -2565 -2564 -2570 0
-2576 2565 0
-2576 2564 0
-2576 2570 0
2577 -2563 -2567 -2570 0
-2577 2563 0
-2577 2567 0
-2577 2570 0
2578 -2565 -2568 -2567 0
-2578 2565 0
-2578 2568 0
-2578 2567 0
2579 -2568 -2564 -2561 0
-2579 2568 0
-2579 2564 0
-2579 2561 0
2580 -2563 -2564 -2563 0
-2580 2563 0
-2580 2564 0
-2580 2563 0
2581 -2574 -2574 -2580 0
-2581 2574 0
-2581 2574 0
-2581 2580 0
2582 -2575 -2573 -2579 0
-2582 2575 0
-2582 2573 0
-2582 2579 0
2583 -2580 -2572 -2575 0
-2583 2580 0
-2583 2572 0
-2583 2575 0
2584 -2580 -2574 -2577 0
-2584 2580 0
-2584 2574 0
-2584 2577 0
2585 -2574 -2580 -2580 0
-2585 2574 0
-2585 2580 0
-2585 2580 0
2586 -2571 -2580 -2573 0
-2586 2571 0
-2586 2580 0
-2586 2573 0
2587 -2577 -2577 -2571 0
-2587 2577 0
-2587 2577 0
-2587 2571 0
2588 -2575 -2580 -2573 0
-2588 2575 0
-2588 2580 0
-2588 2573 0
2589 -2572 -2579 -2580 0
-2589 2572 0
-2589 2579 0
-2589 2580 0
2590 -2578 -2576 -2573 0
-2590 2578 0
-2590 2576 0
-2590 2573 0
2591 -2584 -2588 -2587 0
-2591 2584 0
-2591 2588 0
-2591 2587 0
2592 -2584 -2589 -2589 0
-2592 2584 0
-2592 2589 0
-2592 2589 0
2593 -2584 -2584 -2582 0
-2593 2584 0
-2593 2584 0
-2593 2582 0
2594 -2581 -2585 -2588 0
-2594 2581 0
-2594 2585 0
-2594 2588 0
2595 -2585 -2590 -2584 0
-2595 2585 0
-2595 2590 0
-2595 2584 0
2596 -2585 -2586 -2586 0
-2596 2585 0
-2596 2586 0
-2596 2586 0
2597 -2583 -2589 -2585 0
-2597 2583 0
-2597 2589 0
-2597 2585 0
2598 -2582 -2585 -2585 0
-2598 2582 0
-2598 2585 0
-2598 2585 0
2599 -2581 -2588 -2584 0
-2599 2581 0
-2599 2588 0
-2599 2584 0
2600 -2589 -2582 -2586 0
-2600 2589 0
-2600 2582 0
-2600 2586 0
2601 -2597 -2591 -2599 0
-2601 2597 0
-2601 2591 0
-2601 2599 0
2602 -2593 -2591 -2596 0
-2602 2593 0
-2602 2591 0
-2602 2596 0
2603 -2598 -2598 -2599 0
-2603 2598 0
-2603 2598 0
-2603 2599 0
2604 -2599 -2597 -2592 0
-2604 2599 0
-2604 2597 0
-2604 2592 0
2605 -2591 -2592 -2598 0
-2605 2591 0
-2605 2592 0
-2605 2598 0
2606 -2594 -2591 -2598 0
-2606 2594 0
-2606 2591 0
-2606 2598 0
2607 -2598 -2597 -2599 0
-2607 2598 0
-2607 2597 0
-2607 2599 0
2608 -2591 -2591 -2600 0
-2608 2591 0
-2608 2591 0
-2608 2600 0
2609 -2594 -2600 -2595 0
-2609 2594 0
-2609 2600 0
-2609 2595 0
2610 -2596 -2594 -2595 0
-2610 2596 0
-2610 2594 0
-2610 2595 0
2611 -2601 -2606 -2604 0
-2611 2601 0
-2611 2606 0
-2611 2604 0
2612 -2606 -2602 -2603 0
-2612 2606 0
-2612 2602 0
-2612 2603 0
2613 -2610 -2603 -2602 0
-2613 2610 0
-2613 2603 0
-2613 2602 0
2614 -2605 -2607 -2603 0
-2614 2605 0
-2614 2607 0
-2614 2603 0
2615 -2603 -2607 -2605 0
-2615 2603 0
-2615 2607 0
-2615 2605 0
2616 -2606 -2605 -2609 0
-2616 2606 0
-2616 2605 0
-2616 2609 0
2617 -2609 -2607 -2602 0
-2617 2609 0
-2617 2607 0
-2617 2602 0
2618 -2607 -2607 -2602 0
-2618 2607 0
-2618 2607 0
-2618 2602 0
2619 -2605 -2606 -2607 0
-2619 2605 0
-2619 2606 0
-2619 2607 0
2620 -2609 -2609 -2609 0
-2620 2609 0
-2620 2609 0
-2620 2609 0
2621 -2618 -2614 -2616 0
-2621 2618 0
-2621 2614 0
-2621 2616 0
2622 -2612 -2617 -2619 0
-2622 2612 0
-2622 2617 0
-2622 2619 0
2623 -2618 -2611 -2620 0
-2623 2618 0
-2623 2611 0
-2623 2620 0
2624 -2619 -2614 -2616 0
-2624 2619 0
-2624 2614 0
-2624 2616 0
2625 -2612 -2612 -2616 0
-2625 2612 0
-2625 2612 0
-2625 2616 0
2626 -2611 -2612 -2617 0
-2626 2611 0
-2626 2612 0
-2626 2617 0
2627 -2617 -2617 -2612 0
-2627 2617 0
-2627 2617 0
-2627 2612 0
2628 -2613 -2614 -2620 0
-2628 2613 0
-2628 2614 0
-2628 2620 0
2629 -2617 -2611 -2618 0
-2629 2617 0
-2629 2611 0
-2629 2618 0
2630 -2615 -2612 -2613 0
-2630 2615 0
-2630 2612 0
-2630 2613 0
2631 -2621 -2623 -2622 0
-2631 2621 0
-2631 2623 0
-2631 2622 0
2632 -2630 -2621 -2624 0
-2632 2630 0
-2632 2621 0
-2632 2624 0
2633 -2623 -2622 -2628 0
-2633 2623 0
-2633 2622 0
-2633 2628 0
2634 -2627 -2628 -2622 0
-2634 2627 0
-2634 2628 0
-2634 2622 0
2635 -2627 -2621 -2625 0
-2635 2627 0
-2635 2621 0
-2635 2625 0
2636 -2622 -2627 -2628 0
-2636 2622 0
-2636 2627 0
-2636 2628 0
2637 -2622 -2625 -2622 0
-2637 2622 0
-2637 2625 0
-2637 2622 0
2638 -2628 -2621 -2629 0
-2638 2628 0
-2638 2621 0
-2638 2629 0
2639 -2627 -2626 -2630 0
-2639 2627 0
-2639 2626 0
-2639 2630 0
2640 -2628 -2626 -2621 0
-2640 2628 0
-2640 2626 0
-2640 2621 0
2641 -2638 -2632 -2635 0
-2641 2638 0
-2641 2632 0
-2641 2635 0
2642 -2635 -2638 -2638 0
-2642 2635 0
-2642 2638 0
-2642 2638 0
2643 -2633 -2634 -2636 0
-2643 2633 0
-2643 2634 0
-2643 2636 0
2644 -2637 -2635 -2634 0
-2644 2637 0
-2644 2635 0
-2644 2634 0
2645 -2638 -2632 -2631 0
-2645 2638 0
-2645 2632 0
-2645 2631 0
2646 -2637 -2637 -2634 0
-2646 2637 0
-2646 2637 0
-2646 2634 0
2647 -2631 -2632 -2638 0
-2647 2631 0
-2647 2632 0
-2647 2638 0
2648 -2636 -2633 -2640 0
-2648 2636 0
-2648 2633 0
-2648 2640 0
2649 -2632 -2639 -2640 0
-2649 2632 0
-2649 2639 0
-2649 2640 0
2650 -2635 -2637 -2640 0
-2650 2635 0
-2650 2637 0
-2650 2640 0
2651 -2649 -2642 -2643 0
-2651 2649 0
-2651 2642 0
-2651 2643 0
2652 -2647 -2645 -2642 0
-2652 2647 0
-2652 2645 0
-2652 2642 0
2653 -2644 -2649 -2648 0
-2653 2644 0
-2653 2649 0
-2653 2648 0
2654 -2649 -2648 -2643 0
-2654 2649 0
-2654 2648 0
-2654 2643 0
2655 -2647 -2648 -2644 0
-2655 2647 0
-2655 2648 0
-2655 2644 0
2656 -2641 -2644 -2646 0
-2656 2641 0
-2656 2644 0
-2656 2646 0
2657 -2646 -2641 -2643 0
-2657 2646 0
-2657 2641 0
-2657 2643 0
2658 -2643 -2650 -2646 0
-2658 2643 0
-2658 2650 0
-2658 2646 0
2659 -2650 -2645 -2649 0
-2659 2650 0
-2659 2645 0
-2659 2649 0
2660 -2644 -2642 -2644 0
-2660 2644 0
-2660 2642 0
-2660 2644 0
2661 -2654 -2655 -2660 0
-2661 2654 0
-2661 2655 0
-2661 2660 0
2662 -2653 -2653 -2654 0
-2662 2653 0
-2662 2653 0
-2662 2654 0
2663 -2653 -2655 -2656 0
-2663 2653 0
-2663 2655 0
-2663 2656 0
2664 -2655 -2655 -2652 0
-2664 2655 0
-2664 2655 0
-2664 2652 0
2665 -2654 -2652 -2659 0
-2665 2654 0
-2665 2652 0
-2665 2659 0
2666 -2660 -2653 -2656 0
-2666 2660 0
-2666 2653 0
-2666 2656 0
2667 -2654 -2652 -2659 0
-2667 2654 0
-2667 2652 0
-2667 2659 0
2668 -2657 -2655 -2659 0
-2668 2657 0
-2668 2655 0
-2668 2659 0
2669 -2653 -2658 -2655 0
-2669 2653 0
-2669 2658 0
-2669 2655 0
2670 -2655 -2653 -2660 0
-2670 2655 0
-2670 2653 0
-2670 2660 0
2671 -2664 -2663 -2663 0
-2671 2664 0
-2671 2663 0
-2671 2663 0
2672 -2670 -2663 -2661 0
-2672 2670 0
-2672 2663 0
-2672 2661 0
2673 -2661 -2664 -2665 0
-2673 2661 0
-2673 2664 0
-2673 2665 0
2674 -2667 -2663 -2667 0
-2674 2667 0
-2674 2663 0
-2674 2667 0
2675 -2669 -2666 -2668 0
-2675 2669 0
-2675 2666 0
-2675 2668 0
2676 -2661 -2663 -2666 0
-2676 2661 0
-2676 2663 0
-2676 2666 0
2677 -2662 -2669 -2666 0
-2677 2662 0
-2677 2669 0
-2677 2666 0
2678 -2661 -2662 -2668 0
-2678 2661 0
-2678 2662 0
-2678 2668 0
2679 -2663 -2669 -2665 0
-2679 2663 0
-2679 2669 0
-2679 2665 0
2680 -2670 -2670 -2663 0
-2680 2670 0
-2680 2670 0
-2680 2663 0
2681 -2672 -2679 -2673 0
-2681 2672 0
-2681 2679 0
-2681 2673 0
2682 -2672 -2673 -2678 0
-2682 2672 0
-2682 2673 0
-2682 2678 0
2683 -2677 -2672 -2680 0
-2683 2677 0
-2683 2672 0
-2683 2680 0
2684 -2675 -2672 -2678 0
-2684 2675 0
-2684 2672 0
-2684 2678 0
2685 -2673 -2680 -2679 0
-2685 2673 0
-2685 2680 0
-2685 2679 0
2686 -2675 -2680 -2679 0
-2686 2675 0
-2686 2680 0
-2686 2679 0
2687 -2678 -2679 -2677 0
-2687 2678 0
-2687 2679 0
-2687 2677 0
2688 -2676 -2671 -2673 0
-2688 2676 0
-2688 2671 0
-2688 2673 0
2689 -2672 -2674 -2680 0
-2689 2672 0
-2689 2674 0
-2689 2680 0
2690 -2674 -2671 -2673 0
-2690 2674 0
-2690 2671 0
-2690 2673 0
2691 -2687 -2687 -2684 0
-2691 2687 0
-2691 2687 0
-2691 2684 0
2692 -2689 -2689 -2689 0
-2692 2689 0
-2692 2689 0
-2692 2689 0
2693 -2690 -2685 -2682 0
-2693 2690 0
-2693 2685 0
-2693 2682 0
2694 -2687 -2686 -2685 0
-2694 2687 0
-2694 2686 0
-2694 2685 0
2695 -2683 -2682 -2684 0
-2695 2683 0
-2695 2682 0
-2695 2684 0
2696 -2690 -2685 -2686 0
-2696 2690 0
-2696 2685 0
-2696 2686 0
2697 -2689 -2688 -2690 0
-2697 2689 0
-2697 2688 0
-2697 2690 0
2698 -2686 -2683 -2681 0
-2698 2686 0
-2698 2683 0
-2698 2681 0
2699 -2681 -2689 -2690 0
-2699 2681 0
-2699 2689 0
-2699 2690 0
2700 -2688 -2688 -2684 0
-2700 2688 0
-2700 2688 0
-2700 2684 0
2701 -2693 -2699 -2691 0
-2701 2693 0
-2701 2699 0
-2701 2691 0
2702 -2699 -2691 -2694 0
-2702 2699 0
-2702 2691 0
-2702 2694 0
2703 -2696 -2692 -2691 0
-2703 2696 0
-2703 2692 0
-2703 2691 0
2704 -2695 -2697 -2691 0
-2704 2695 0
-2704 2697 0
-2704 2691 0
2705 -2693 -2694 -2691 0
-2705 2693 0
-2705 2694 0
-2705 2691 0
2706 -2698 -2698 -2700 0
-2706 2698 0
-2706 2698 0
-2706 2700 0
2707 -2696 -2693 -2695 0
-2707 2696 0
-2707 2693 0
-2707 2695 0
2708 -2695 -2696 -2696 0
-2708 2695 0
-2708 2696 0
-2708 2696 0
2709 -2694 -2696 -2695 0
-2709 2694 0
-2709 2696 0
-2709 2695 0
2710 -2693 -2692 -2699 0
-2710 2693 0
-2710 2692 0
-2710 2699 0
2711 -2703 -2703 -2702 0
-2711 2703 0
-2711 2703 0
-2711 2702 0
2712 -2702 -2710 -2708 0
-2712 2702 0
-2712 2710 0
-2712 2708 0
2713 -2703 -2703 -2709 0
-2713 2703 0
-2713 2703 0
-2713 2709 0
2714 -2703 -2701 -2708 0
-2714 2703 0
-2714 2701 0
-2714 2708 0
2715 -2705 -2708 -2705 0
-2715 2705 0
-2715 2708 0
-2715 2705 0
2716 -2707 -2708 -2703 0
-2716 2707 0
-2716 2708 0
-2716 2703 0
2717 -2704 -2703 -2701 0
-2717 2704 0
-2717 2703 0
-2717 2701 0
2718 -2702 -2706 -2703 0
-2718 2702 0
-2718 2706 0
-2718 2703 0
2719 -2705 -2703 -2708 0
-2719 2705 0
-2719 2703 0
-2719 2708 0
2720 -2703 -2702 -2702 0
-2720 2703 0
-2720 2702 0
-2720 2702 0
2721 -2715 -2718 -2715 0
-2721 2715 0
-2721 2718 0
-2721 2715 0
2722 -2712 -2714 -2720 0
-2722 2712 0
-2722 2714 0
-2722 2720 0
2723 -2719 -2717 -2719 0
-2723 2719 0
-2723 2717 0
-2723 2719 0
2724 -2720 -2718 -2714 0
-2724 2720 0
-2724 2718 0
-2724 2714 0
2725 -2718 -2715 -2715 0
-2725 2718 0
-2725 2715 0
-2725 2715 0
2726 -2718 -2720 -2720 0
-2726 2718 0
-2726 2720 0
-2726 2720 0
2727 -2712 -2711 -2711 0
-2727 2712 0
-2727 2711 0
-2727 2711 0
2728 -2713 -2719 -2715 0
-2728 2713 0
-2728 2719 0
-2728 2715 0
2729 -2718 -2717 -2711 0
-2729 2718 0
-2729 2717 0
-2729 2711 0
2730 -2718 -2716 -2715 0
-2730 2718 0
-2730 2716 0
-2730 2715 0
2731 -2728 -2722 -2730 0
-2731 2728 0
-2731 2722 0
-2731 2730 0
2732 -2724 -2727 -2722 0
-2732 2724 0
-2732 2727 0
-2732 2722 0
2733 -2725 -2729 -2724 0
-2733 2725 0
-2733 2729 0
-2733 2724 0
2734 -2723 -2725 -2723 0
-2734 2723 0
-2734 2725 0
-2734 2723 0
2735 -2724 -2729 -2721 0
-2735 2724 0
-2735 2729 0
-2735 2721 0
2736 -2721 -2730 -2728 0
-2736 2721 0
-2736 2730 0
-2736 2728 0
2737 -2729 -2727 -2722 0
-2737 2729 0
-2737 2727 0
-2737 2722 0
2738 -2728 -2723 -2730 0
-2738 2728 0
-2738 2723 0
-2738 2730 0
2739 -2730 -2723 -2727 0
-2739 2730 0
-2739 2723 0
-2739 2727 0
2740 -2725 -2724 -2729 0
-2740 2725 0
-2740 2724 0
-2740 2729 0
2741 -2734 -2739 -2734 0
-2741 2734 0
-2741 2739 0
-2741 2734 0
2742 -2734 -2735 -2733 0
-2742 2734 0
-2742 2735 0
-2742 2733 0
2743 -2731 -2739 -2740 0
-2743 2731 0
-2743 2739 0
-2743 2740 0
2744 -2733 -2739 -2739 0
-2744 2733 0
-2744 2739 0
-2744 2739 0
2745 -2736 -2735 -2731 0
-2745 2736 0
-2745 2735 0
-2745 2731 0
2746 -2735 -2736 -2737 0
-2746 2735 0
-2746 2736 0
-2746 2737 0
2747 -2737 -2733 -2734 0
-2747 2737 0
-2747 2733 0
-2747 2734 0
2748 -2737 -2740 -2740 0
-2748 2737 0
-2748 2740 0
-2748 2740 0
2749 -2736 -2736 -2734 0
-2749 2736 0
-2749 2736 0
-2749 2734 0
2750 -2739 -2735 -2737 0
-2750 2739 0
-2750 2735 0
-2750 2737 0
2751 -2749 -2748 -2741 0
-2751 2749 0
-2751 2748 0
-2751 2741 0
2752 -2744 -2747 -2743 0
-2752 2744 0
-2752 2747 0
-2752 2743 0
2753 -2745 -2750 -2750 0
-2753 2745 0
-2753 2750 0
-2753 2750 0
2754 -2750 -2746 -2746 0
-2754 2750 0
-2754 2746 0
-2754 2746 0
2755 -2742 -2747 -2746 0
-2755 2742 0
-2755 2747 0
-2755 2746 0
2756 -2743 -2743 -2750 0
-2756 2743 0
-2756 2743 0
-2756 2750 0
2757 -2745 -2742 -2749 0
-2757 2745 0
-2757 2742 0
-2757 2749 0
2758 -2746 -2741 -2743 0
-2758 2746 0
-2758 2741 0
-2758 2743 0
2759 -2741 -2741 -2745 0
-2759 2741 0
-2759 2741 0
-2759 2745 0
2760 -2742 -2742 -2746 0
-2760 2742 0
-2760 2742 0
-2760 2746 0
2761 -2751 -2757 -2755 0
-2761 2751 0
-2761 2757 0
-2761 2755 0
2762 -2759 -2760 -2757 0
-2762 2759 0
-2762 2760 0
-2762 2757 0
2763 -2760 -2757 -2757 0
-2763 2760 0
-2763 2757 0
-2763 2757 0
2764 -2760 -2760 -2755 0
-2764 2760 0
-2764 2760 0
-2764 2755 0
2765 -2758 -2754 -2758 0
-2765 2758 0
-2765 2754 0
-2765 2758 0
2766 -2756 -2757 -2752 0
-2766 2756 0
-2766 2757 0
-2766 2752 0
2767 -2755 -2758 -2751 0
-2767 2755 0
-2767 2758 0
-2767 2751 0
2768 -2752 -2756 -2752 0
-2768 2752 0
-2768 2756 0
-2768 2752 0
2769 -2755 -2752 -2756 0
-2769 2755 0
-2769 2752 0
-2769 2756 0
2770 -2758 -2753 -2752 0
-2770 2758 0
-2770 2753 0
-2770 2752 0
2771 -2769 -2769 -2761 0
-2771 2769 0
-2771 2769 0
-2771 2761 0
2772 -2762 -2762 -2770 0
-2772 2762 0
-2772 2762 0
-2772 2770 0
2773 -2769 -2763 -2770 0
-2773 2769 0
-2773 2763 0
-2773 2770 0
2774 -2767 -2763 -2761 0
-2774 2767 0
-2774 2763 0
-2774 2761 0
2775 -2766 -2761 -2767 0
-2775 2766 0
-2775 2761 0
-2775 2767 0
2776 -2766 -2763 -2761 0
-2776 2766 0
-2776 2763 0
-2776 2761 0
2777 -2768 -2761 -2761 0
-2777 2768 0
-2777 2761 0
-2777 2761 0
2778 -2768 -2764 -2765 0
-2778 2768 0
-2778 2764 0
-2778 2765 0
2779 -2763 -2761 -2763 0
-2779 2763 0
-2779 2761 0
-2779 2763 0
2780 -2768 -2770 -2763 0
-2780 2768 0
-2780 2770 0
-2780 2763 0
2781 -2778 -2779 -2773 0
-2781 2778 0
-2781 2779 0
-2781 2773 0
2782 -2773 -2774 -2779 0
-2782 2773 0
-2782 2774 0
-2782 2779 0
2783 -2779 -2777 -2772 0
-2783 2779 0
-2783 2777 0
-2783 2772 0
2784 -2774 -2773 -2775 0
-2784 2774 0
-2784 2773 0
-2784 2775 0
2785 -2772 -2771 -2777 0
-2785 2772 0
-2785 2771 0
-2785 2777 0
2786 -2780 -2772 -2778 0
-2786 2780 0
-2786 2772 0
-2786 2778 0
2787 -2777 -2778 -2776 0
-2787 2777 0
-2787 2778 0
-2787 2776 0
2788 -2776 -2774 -2774 0
-2788 2776 0
-2788 2774 0
-2788 2774 0
2789 -2771 -2772 -2777 0
-2789 2771 0
-2789 2772 0
-2789 2777 0
2790 -2775 -2773 -2778 0
-2790 2775 0
-2790 2773 0
-2790 2778 0
2791 -2782 -2788 -2788 0
-2791 2782 0
-2791 2788 0
-2791 2788 0
2792 -2787 -2789 -2789 0
-2792 2787 0
-2792 2789 0
-2792 2789 0
2793 -2781 -2781 -2787 0
-2793 2781 0
-2793 2781 0
-2793 2787 0
2794 -2790 -2782 -2782 0
-2794 2790 0
-2794 2782 0
-2794 2782 0
2795 -2788 -2788 -2787 0
-2795 2788 0
-2795 2788 0
-2795 2787 0
2796 -2785 -2781 -2787 0
-2796 2785 0
-2796 2781 0
-2796 2787 0
2797 -2784 -2790 -2788 0
-2797 2784 0
-2797 2790 0
-2797 2788 0
2798 -2783 -2790 -2785 0
-2798 2783 0
-2798 2790 0
-2798 2785 0
2799 -2781 -2784 -2783 0
-2799 2781 0
-2799 2784 0
-2799 2783 0
2800 -2781 -2781 -2789 0
-2800 2781 0
-2800 2781 0
-2800 2789 0
2801 -2798 -2798 -2795 0
-2801 2798 0
-2801 2798 0
-2801 2795 0
2802 -2797 -2799 -2792 0
-2802 2797 0
-2802 2799 0
-2802 2792 0
2803 -2800 -2797 -2796 0
-2803 2800 0
-2803 2797 0
-2803 2796 0
2804 -2798 -2795 -2795 0
-2804 2798 0
-2804 2795 0
-2804 2795 0
2805 -2799 -2796 -2792 0
-2805 2799 0
-2805 2796 0
-2805 2792 0
2806 -2795 -2800 -2795 0
-2806 2795 0
-2806 2800 0
-2806 2795 0
2807 -2793 -2797 -2791 0
-2807 2793 0
-2807 2797 0
-2807 2791 0
2808 -2794 -2797 -2793 0
-2808 2794 0
-2808 2797 0
-2808 2793 0
2809 -2795 -2794 -2795 0
-2809 2795 0
-2809 2794 0
-2809 2795 0
2810 -2792 -2795 -2796 0
-2810 2792 0
-2810 2795 0
-2810 2796 0
2811 -2805 -2801 -2810 0
-2811 2805 0
-2811 2801 0
-2811 2810 0
2812 -2809 -2808 -2807 0
-2812 2809 0
-2812 2808 0
-2812 2807 0
2813 -2801 -2809 -2806 0
-2813 2801 0
-2813 2809 0
-2813 2806 0
2814 -2802 -2802 -2803 0
-2814 2802 0
-2814 2802 0
-2814 2803 0
2815 -2802 -2803 -2807 0
-2815 2802 0
-2815 2803 0
-2815 2807 0
2816 -2803 -2808 -2804 0
-2816 2803 0
-2816 2808 0
-2816 2804 0
2817 -2801 -2802 -2806 0
-2817 2801 0
-2817 2802 0
-2817 2806 0
2818 -2809 -2810 -2807 0
-2818 2809 0
-2818 2810 0
-2818 2807 0
2819 -2808 -2804 -2803 0
-2819 2808 0
-2819 2804 0
-2819 2803 0
2820 -2802 -2805 -2801 0
-2820 2802 0
-2820 2805 0
-2820 2801 0
2821 -2814 -2814 -2817 0
-2821 2814 0
-2821 2814 0
-2821 2817 0
2822 -2819 -2819 -2815 0
-2822 2819 0
-2822 2819 0
-2822 2815 0
2823 -2820 -2814 -2816 0
-2823 2820 0
-2823 2814 0
-2823 2816 0
2824 -2820 -2816 -2815 0
-2824 2820 0
-2824 2816 0
-2824 2815 0
2825 -2812 -2812 -2815 0
-2825 2812 0
-2825 2812 0
-2825 2815 0
2826 -2815 -2813 -2811 0
-2826 2815 0
-2826 2813 0
-2826 2811 0
2827 -2813 -2818 -2820 0
-2827 2813 0
-2827 2818 0
-2827 2820 0
2828 -2812 -2814 -2813 0
-2828 2812 0
-2828 2814 0
-2828 2813 0
2829 -2816 -2817 -2812 0
-2829 2816 0
-2829 2817 0
-2829 2812 0
2830 -2812 -2820 -2813 0
-2830 2812 0
-2830 2820 0
-2830 2813 0
2831 -2825 -2828 -2827 0
-2831 2825 0
-2831 2828 0
-2831 2827 0
2832 -2826 -2829 -2821 0
-2832 2826 0
-2832 2829 0
-2832 2821 0
2833 -2827 -2826 -2830 0
-2833 2827 0
-2833 2826 0
-2833 2830 0
2834 -2828 -2821 -2827 0
-2834 2828 0
-2834 2821 0
-2834 2827 0
2835 -2826 -2825 -2823 0
-2835 2826 0
-2835 2825 0
-2835 2823 0
2836 -2826 -2821 -2824 0
-2836 2826 0
-2836 2821 0
-2836 2824 0
2837 -2825 -2822 -2829 0
-2837 2825 0
-2837 2822 0
-2837 2829 0
2838 -2830 -2823 -2823 0
-2838 2830 0
-2838 2823 0
-2838 2823 0
2839 -2825 -2830 -2828 0
-2839 2825 0
-2839 2830 0
-2839 2828 0
2840 -2828 -2823 -2826 0
-2840 2828 0
-2840 2823 0
-2840 2826 0
2841 -2835 -2838 -2832 0
-2841 2835 0
-2841 2838 0
-2841 2832 0
2842 -2840 -2836 -2837 0
-2842 2840 0
-2842 2836 0
-2842 2837 0
2843 -2833 -2834 -2838 0
-2843 2833 0
-2843 2834 0
-2843 2838 0
2844 -2835 -2837 -2831 0
-2844 2835 0
-2844 2837 0
-2844 2831 0
2845 -2833 -2840 -2833 0
-2845 2833 0
-2845 2840 0
-2845 2833 0
2846 -2834 -2836 -2832 0
-2846 2834 0
-2846 2836 0
-2846 2832 0
2847 -2833 -2836 -2833 0
-2847 2833 0
-2847 2836 0
-2847 2833 0
2848 -2836 -2834 -2836 0
-2848 2836 0
-2848 2834 0
-2848 2836 0
2849 -2831 -2835 -2831 0
-2849 2831 0
-2849 2835 0
-2849 2831 0
2850 -2835 -2838 -2834 0
-2850 2835 0
-2850 2838 0
-2850 2834 0
2851 -2843 -2846 -2845 0
-2851 2843 0
-2851 2846 0
-2851 2845 0
2852 -2842 -2845 -2844 0
-2852 2842 0
-2852 2845 0
-2852 2844 0
2853 -2849 -2842 -2844 0
-2853 2849 0
-2853 2842 0
-2853 2844 0
2854 -2841 -2850 -2845 0
-2854 2841 0
-2854 2850 0
-2854 2845 0
2855 -2848 -2846 -2845 0
-2855 2848 0
-2855 2846 0
-2855 2845 0
2856 -2849 -2850 -2845 0
-2856 2849 0
-2856 2850 0
-2856 2845 0
2857 -2849 -2847 -2846 0
-2857 2849 0
-2857 2847 0
-2857 2846 0
2858 -2842 -2843 -2850 0
-2858 2842 0
-2858 2843 0
-2858 2850 0
2859 -2847 -2849 -2843 0
-2859 2847 0
-2859 2849 0
-2859 2843 0
2860 -2842 -2844 -2845 0
-2860 2842 0
-2860 2844 0
-2860 2845 0
2861 -2855 -2860 -2856 0
-2861 2855 0
-2861 2860 0
-2861 2856 0
2862 -2854 -2858 -2855 0
-2862 2854 0
-2862 2858 0
-2862 2855 0
2863 -2860 -2854 -2851 0
-2863 2860 0
-2863 2854 0
-2863 2851 0
2864 -2860 -2854 -2851 0
-2864 2860 0
-2864 2854 0
-2864 2851 0
2865 -2851 -2858 -2855 0
-2865 2851 0
-2865 2858 0
-2865 2855 0
2866 -2858 -2855 -2860 0
-2866 2858 0
-2866 2855 0
-2866 2860 0
2867 -2851 -2858 -2851 0
-2867 2851 0
-2867 2858 0
-2867 2851 0
2868 -2852 -2852 -2860 0
-2868 2852 0
-2868 2852 0
-2868 2860 0
2869 -2856 -2852 -2851 0
-2869 2856 0
-2869 2852 0
-2869 2851 0
2870 -2857 -2860 -2856 0
-2870 2857 0
-2870 2860 0
-2870 2856 0
2871 -2862 -2870 -2865 0
-2871 2862 0
-2871 2870 0
-2871 2865 0
2872 -2868 -2867 -2866 0
-2872 2868 0
-2872 2867 0
-2872 2866 0
2873 -2863 -2865 -2869 0
-2873 2863 0
-2873 2865 0
-2873 2869 0
2874 -2866 -2863 -2867 0
-2874 2866 0
-2874 2863 0
-2874 2867 0
2875 -2868 -2861 -2870 0
-2875 2868 0
-2875 2861 0
-2875 2870 0
2876 -2863 -2863 -2861 0
-2876 2863 0
-2876 2863 0
-2876 2861 0
2877 -2864 -2861 -2861 0
-2877 2864 0
-2877 2861 0
-2877 2861 0
2878 -2861 -2861 -2866 0
-2878 2861 0
-2878 2861 0
-2878 2866 0
2879 -2868 -2867 -2865 0
-2879 2868 0
-2879 2867 0
-2879 2865 0
2880 -2869 -2870 -2865 0
-2880 2869 0
-2880 2870 0
-2880 2865 0
2881 -2879 -2874 -2874 0
-2881 2879 0
-2881 2874 0
-2881 2874 0
2882 -2878 -2875 -2880 0
-2882 2878 0
-2882 2875 0
-2882 2880 0
2883 -2875 -2880 -2874 0
-2883 2875 0
-2883 2880 0
-2883 2874 0
2884 -2874 -2880 -2877 0
-2884 2874 0
-2884 2880 0
-2884 2877 0
2885 -2875 -2875 -2872 0
-2885 2875 0
-2885 2875 0
-2885 2872 0
2886 -2872 -2876 -2875 0
-2886 2872 0
-2886 2876 0
-2886 2875 0
2887 -2877 -2872 -2879 0
-2887 2877 0
-2887 2872 0
-2887 2879 0
2888 -2876 -2880 -2877 0
-2888 2876 0
-2888 2880 0
-2888 2877 0
2889 -2873 -2871 -2871 0
-2889 2873 0
-2889 2871 0
-2889 2871 0
2890 -2874 -2875 -2880 0
-2890 2874 0
-2890 2875 0
-2890 2880 0
2891 -2890 -2882 -2881 0
-2891 2890 0
-2891 2882 0
-2891 2881 0
2892 -2889 -2886 -2886 0
-2892 2889 0
-2892 2886 0
-2892 2886 0
2893 -2884 -2888 -2890 0
-2893 2884 0
-2893 2888 0
-2893 2890 0
2894 -2888 -2883 -2888 0
-2894 2888 0
-2894 2883 0
-2894 2888 0
2895 -2882 -2888 -2882 0
-2895 2882 0
-2895 2888 0
-2895 2882 0
2896 -2886 -2882 -2888 0
-2896 2886 0
-2896 2882 0
-2896 2888 0
2897 -2887 -2890 -2887 0
-2897 2887 0
-2897 2890 0
-2897 2887 0
2898 -2885 -2883 -2887 0
-2898 2885 0
-2898 2883 0
-2898 2887 0
2899 -2886 -2881 -2886 0
-2899 2886 0
-2899 2881 0
-2899 2886 0
2900 -2881 -2884 -2883 0
-2900 2881 0
-2900 2884 0
-2900 2883 0
2901 -2892 -2896 -2893 0
-2901 2892 0
-2901 2896 0
-2901 2893 0
2902 -2891 -2892 -2895 0
-2902 2891 0
-2902 2892 0
-2902 2895 0
2903 -2897 -2894 -2897 0
-2903 2897 0
-2903 2894 0
-2903 2897 0
2904 -2897 -2892 -2897 0
-2904 2897 0
-2904 2892 0
-2904 2897 0
2905 -2897 -2894 -2891 0
-2905 2897 0
-2905 2894 0
-2905 2891 0
2906 -2897 -2894 -2898 0
-2906 2897 0
-2906 2894 0
-2906 2898 0
2907 -2892 -2892 -2891 0
-2907 2892 0
-2907 2892 0
-2907 2891 0
2908 -2893 -2891 -2899 0
-2908 2893 0
-2908 2891 0
-2908 2899 0
2909 -2899 -2892 -2891 0
-2909 2899 0
-2909 2892 0
-2909 2891 0
2910 -2892 -2894 -2891 0
-2910 2892 0
-2910 2894 0
-2910 2891 0
2911 -2906 -2909 -2910 0
-2911 2906 0
-2911 2909 0
-2911 2910 0
2912 -2904 -2903 -2910 0
-2912 2904 0
-2912 2903 0
-2912 2910 0
2913 -2907 -2901 -2907 0
-2913 2907 0
-2913 2901 0
-2913 2907 0
2914 -2904 -2907 -2909 0
-2914 2904 0
-2914 2907 0
-2914 2909 0
2915 -2907 -2905 -2905 0
-2915 2907 0
-2915 2905 0
-2915 2905 0
2916 -2906 -2904 -2906 0
-2916 2906 0
-2916 2904 0
-2916 2906 0
2917 -2904 -2908 -2901 0
-2917 2904 0
-2917 2908 0
-2917 2901 0
2918 -2908 -2908 -2907 0
-2918 2908 0
-2918 2908 0
-2918 2907 0
2919 -2904 -2901 -2901 0
-2919 2904 0
-2919 2901 0
-2919 2901 0
2920 -2907 -2904 -2906 0
-2920 2907 0
-2920 2904 0
-2920 2906 0
2921 -2912 -2914 -2915 0
-2921 2912 0
-2921 2914 0
-2921 2915 0
2922 -2914 -2916 -2916 0
-2922 2914 0
-2922 2916 0
-2922 2916 0
2923 -2914 -2914 -2911 0
-2923 2914 0
-2923 2914 0
-2923 2911 0
2924 -2912 -2919 -2911 0
-2924 2912 0
-2924 2919 0
-2924 2911 0
2925 -2917 -2917 -2914 0
-2925 2917 0
-2925 2917 0
-2925 2914 0
2926 -2913 -2918 -2918 0
-2926 2913 0
-2926 2918 0
-2926 2918 0
2927 -2914 -2913 -2916 0
-2927 2914 0
-2927 2913 0
-2927 2916 0
2928 -2916 -2917 -2915 0
-2928 2916 0
-2928 2917 0
-2928 2915 0
2929 -2913 -2911 -2913 0
-2929 2913 0
-2929 2911 0
-2929 2913 0
2930 -2920 -2919 -2917 0
-2930 2920 0
-2930 2919 0
-2930 2917 0
2931 -2928 -2922 -2927 0
-2931 2928 0
-2931 2922 0
-2931 2927 0
2932 -2926 -2927 -2922 0
-2932 2926 0
-2932 2927 0
-2932 2922 0
2933 -2926 -2922 -2926 0
-2933 2926 0
-2933 2922 0
-2933 2926 0
2934 -2930 -2924 -2923 0
-2934 2930 0
-2934 2924 0
-2934 2923 0
2935 -2925 -2930 -2925 0
-2935 2925 0
-2935 2930 0
-2935 2925 0
2936 -2927 -2922 -2927 0
-2936 2927 0
-2936 2922 0
-2936 2927 0
2937 -2928 -2929 -2927 0
-2937 2928 0
-2937 2929 0
-2937 2927 0
2938 -2925 -2921 -2926 0
-2938 2925 0
-2938 2921 0
-2938 2926 0
2939 -2925 -2922 -2928 0
-2939 2925 0
-2939 2922 0
-2939 2928 0
2940 -2926 -2925 -2924 0
-2940 2926 0
-2940 2925 0
-2940 2924 0
2941 -2938 -2931 -2940 0
-2941 2938 0
-2941 2931 0
-2941 2940 0
2942 -2934 -2940 -2940 0
-2942 2934 0
-2942 2940 0
-2942 2940 0
2943 -2937 -2935 -2938 0
-2943 2937 0
-2943 2935 0
-2943 2938 0
2944 -2935 -2935 -2934 0
-2944 2935 0
-2944 2935 0
-2944 2934 0
2945 -2934 -2934 -2932 0
-2945 2934 0
-2945 2934 0
-2945 2932 0
2946 -2934 -2938 -2938 0
-2946 2934 0
-2946 2938 0
-2946 2938 0
2947 -2937 -2940 -2939 0
-2947 2937 0
-2947 2940 0
-2947 2939 0
2948 -2940 -2940 -2940 0
-2948 2940 0
-2948 2940 0
-2948 2940 0
2949 -2939 -2935 -2935 0
-2949 2939 0
-2949 2935 0
-2949 2935 0
2950 -2935 -2939 -2935 0
-2950 2935 0
-2950 2939 0
-2950 2935 0
2951 -2947 -2946 -2943 0
-2951 2947 0
-2951 2946 0
-2951 2943 0
2952 -2945 -2949 -2947 0
-2952 2945 0
-2952 2949 0
-2952 2947 0
2953 -2949 -2949 -2943 0
-2953 2949 0
-2953 2949 0
-2953 2943 0
2954 -2942 -2945 -2945 0
-2954 2942 0
-2954 2945 0
-2954 2945 0
2955 -2947 -2946 -2942 0
-2955 2947 0
-2955 2946 0
-2955 2942 0
2956 -2946 -2943 -2945 0
-2956 2946 0
-2956 2943 0
-2956 2945 0
2957 -2945 -2941 -2949 0
-2957 2945 0
-2957 2941 0
-2957 2949 0
2958 -2946 -2943 -2948 0
-2958 2946 0
-2958 2943 0
-2958 2948 0
2959 -2949 -2941 -2941 0
-2959 2949 0
-2959 2941 0
-2959 2941 0
2960 -2944 -2944 -2942 0
-2960 2944 0
-2960 2944 0
-2960 2942 0
2961 -2952 -2953 -2955 0
-2961 2952 0
-2961 2953 0
-2961 2955 0
2962 -2958 -2959 -2958 0
-2962 2958 0
-2962 2959 0
-2962 2958 0
2963 -2959 -2955 -2955 0
-2963 2959 0
-2963 2955 0
-2963 2955 0
2964 -2952 -2953 -2952 0
-2964 2952 0
-2964 2953 0
-2964 2952 0
2965 -2957 -2957 -2955 0
-2965 2957 0
-2965 2957 0
-2965 2955 0
2966 -2959 -2953 -2956 0
-2966 2959 0
-2966 2953 0
-2966 2956 0
2967 -2958 -2957 -2960 0
-2967 2958 0
-2967 2957 0
-2967 2960 0
2968 -2952 -2958 -2959 0
-2968 2952 0
-2968 2958 0
-2968 2959 0
2969 -2954 -2951 -2952 0
-2969 2954 0
-2969 2951 0
-2969 2952 0
2970 -2959 -2954 -2957 0
-2970 2959 0
-2970 2954 0
-2970 2957 0
2971 -2968 -2962 -2968 0
-2971 2968 0
-2971 2962 0
-2971 2968 0
2972 -2967 -2969 -2967 0
-2972 2967 0
-2972 2969 0
-2972 2967 0
2973 -2962 -2961 -2965 0
-2973 2962 0
-2973 2961 0
-2973 2965 0
2974 -2969 -2970 -2964 0
-2974 2969 0
-2974 2970 0
-2974 2964 0
2975 -2965 -2968 -2969 0
-2975 2965 0
-2975 2968 0
-2975 2969 0
2976 -2961 -2965 -2967 0
-2976 2961 0
-2976 2965 0
-2976 2967 0
2977 -2970 -2964 -2961 0
-2977 2970 0
-2977 2964 0
-2977 2961 0
2978 -2963 -2969 -2962 0
-2978 2963 0
-2978 2969 0
-2978 2962 0
2979 -2962 -2963 -2965 0
-2979 2962 0
-2979 2963 0
-2979 2965 0
2980 -2962 -2968 -2970 0
-2980 2962 0
-2980 2968 0
-2980 2970 0
2981 -2977 -2977 -2980 0
-2981 2977 0
-2981 2977 0
-2981 2980 0
2982 -2972 -2974 -2976 0
-2982 2972 0
-2982 2974 0
-2982 2976 0
2983 -2972 -2976 -2975 0
-2983 2972 0
-2983 2976 0
-2983 2975 0
2984 -2971 -2973 -2973 0
-2984 2971 0
-2984 2973 0
-2984 2973 0
2985 -2979 -2977 -2978 0
-2985 2979 0
-2985 2977 0
-2985 2978 0
2986 -2973 -2973 -2977 0
-2986 2973 0
-2986 2973 0
-2986 2977 0
2987 -2977 -2971 -2971 0
-2987 2977 0
-2987 2971 0
-2987 2971 0
2988 -2979 -2973 -2979 0
-2988 2979 0
-2988 2973 0
-2988 2979 0
2989 -2980 -2975 -2976 0
-2989 2980 0
-2989 2975 0
-2989 2976 0
2990 -2976 -2975 -2979 0
-2990 2976 0
-2990 2975 0
-2990 2979 0
2991 -2986 -2984 -2989 0
-2991 2986 0
-2991 2984 0
-2991 2989 0
2992 -2989 -2988 -2986 0
-2992 2989 0
-2992 2988 0
-2992 2986 0
2993 -2985 -2981 -2989 0
-2993 2985 0
-2993 2981 0
-2993 2989 0
2994 -2988 -2983 -2983 0
-2994 2988 0
-2994 2983 0
-2994 2983 0
2995 -2989 -2989 -2989 0
-2995 2989 0
-2995 2989 0
-2995 2989 0
2996 -2986 -2983 -2988 0
-2996 2986 0
-2996 2983 0
-2996 2988 0
2997 -2981 -2988 -2984 0
-2997 2981 0
-2997 2988 0
-2997 2984 0
2998 -2983 -2981 -2987 0
-2998 2983 0
-2998 2981 0
-2998 2987 0
2999 -2987 -2983 -2984 0
-2999 2987 0
-2999 2983 0
-2999 2984 0
3000 -2983 -2986 -2987 0
-3000 2983 0
-3000 2986 0
-3000 2987 0
3001 -2999 -2993 -2991 0
-3001 2999 0
-3001 2993 0
-3001 2991 0
3002 -2995 -2992 -2995 0
-3002 2995 0
-3002 2992 0
-3002 2995 0
3003 -2991 -2997 -2995 0
-3003 2991 0
-3003 2997 0
-3003 2995 0
3004 -2994 -2994 -2999 0
-3004 2994 0
-3004 2994 0
-3004 2999 0
3005 -2993 -2996 -2992 0
-3005 2993 0
-3005 2996 0
-3005 2992 0
3006 -2993 -2992 -2994 0
-3006 2993 0
-3006 2992 0
-3006 2994 0
3007 -2993 -2994 -2998 0
-3007 2993 0
-3007 2994 0
-3007 2998 0
3008 -2997 -2998 -2991 0
-3008 2997 0
-3008 2998 0
-3008 2991 0
3009 -2995 -2992 -2998 0
-3009 2995 0
-3009 2992 0
-3009 2998 0
3010 -3000 -2996 -2994 0
-3010 3000 0
-3010 2996 0
-3010 2994 0
3011 -3006 -3007 -3004 0
-3011 3006 0
-3011 3007 0
-3011 3004 0
3012 -3007 -3003 -3007 0
-3012 3007 0
-3012 3003 0
-3012 3007 0
3013 -3008 -3006 -3005 0
-3013 3008 0
-3013 3006 0
-3013 3005 0
3014 -3010 -3003 -3006 0
-3014 3010 0
-3014 3003 0
-3014 3006 0
3015 -3006 -3003 -3006 0
-3015 3006 0
-3015 3003 0
-3015 3006 0
3016 -3006 -3001 -3002 0
-3016 3006 0
-3016 3001 0
-3016 3002 0
3017 -3006 -3002 -3002 0
-3017 3006 0
-3017 3002 0
-3017 3002 0
3018 -3006 -3006 -3001 0
-3018 3006 0
-3018 3006 0
-3018 3001 0
3019 -3006 -3008 -3006 0
-3019 3006 0
-3019 3008 0
-3019 3006 0
3020 -3004 -3001 -3010 0
-3020 3004 0
-3020 3001 0
-3020 3010 0
3021 -3017 -3014 -3014 0
-3021 3017 0
-3021 3014 0
-3021 3014 0
3022 -3011 -3018 -3014 0
-3022 3011 0
-3022 3018 0
-3022 3014 0
3023 -3012 -3020 -3016 0
-3023 3012 0
-3023 3020 0
-3023 3016 0
3024 -3020 -3015 -3014 0
-3024 3020 0
-3024 3015 0
-3024 3014 0
3025 -3017 -3015 -3012 0
-3025 3017 0
-3025 3015 0
-3025 3012 0
3026 -3011 -3020 -3018 0
-3026 3011 0
-3026 3020 0
-3026 3018 0
3027 -3019 -3011 -3020 0
-3027 3019 0
-3027 3011 0
-3027 3020 0
3028 -3016 -3020 -3014 0
-3028 3016 0
-3028 3020 0
-3028 3014 0
3029 -3011 -3018 -3011 0
-3029 3011 0
-3029 3018 0
-3029 3011 0
3030 -3018 -3011 -3012 0
-3030 3018 0
-3030 3011 0
-3030 3012 0
3031 -3026 -3025 -3026 0
-3031 3026 0
-3031 3025 0
-3031 3026 0
3032 -3030 -3030 -3024 0
-3032 3030 0
-3032 3030 0
-3032 3024 0
3033 -3025 -3022 -3022 0
-3033 3025 0
-3033 3022 0
-3033 3022 0
3034 -3022 -3027 -3029 0
-3034 3022 0
-3034 3027 0
-3034 3029 0
3035 -3022 -3028 -3024 0
-3035 3022 0
-3035 3028 0
-3035 3024 0
3036 -3022 -3022 -3025 0
-3036 3022 0
-3036 3022 0
-3036 3025 0
3037 -3021 -3028 -3021 0
-3037 3021 0
-3037 3028 0
-3037 3021 0
3038 -3024 -3028 -3022 0
-3038 3024 0
-3038 3028 0
-3038 3022 0
3039 -3023 -3029 -3025 0
-3039 3023 0
-3039 3029 0
-3039 3025 0
3040 -3022 -3021 -3029 0
-3040 3022 0
-3040 3021 0
-3040 3029 0
3041 -3038 -3039 -3033 0
-3041 3038 0
-3041 3039 0
-3041 3033 0
3042 -3034 -3037 -3034 0
-3042 3034 0
-3042 3037 0
-3042 3034 0
3043 -3035 -3033 -3035 0
-3043 3035 0
-3043 3033 0
-3043 3035 0
3044 -3032 -3031 -3038 0
-3044 3032 0
-3044 3031 0
-3044 3038 0
3045 -3036 -3033 -3040 0
-3045 3036 0
-3045 3033 0
-3045 3040 0
3046 -3039 -3038 -3031 0
-3046 3039 0
-3046 3038 0
-3046 3031 0
3047 -3040 -3040 -3034 0
-3047 3040 0
-3047 3040 0
-3047 3034 0
3048 -3037 -3037 -3032 0
-3048 3037 0
-3048 3037 0
-3048 3032 0
3049 -3033 -3040 -3033 0
-3049 3033 0
-3049 3040 0
-3049 3033 0
3050 -3032 -3037 -3032 0
-3050 3032 0
-3050 3037 0
-3050 3032 0
3051 -3047 -3046 -3044 0
-3051 3047 0
-3051 3046 0
-3051 3044 0
3052 -3042 -3045 -3046 0
-3052 3042 0
-3052 3045 0
-3052 3046 0
3053 -3050 -3049 -3048 0
-3053 3050 0
-3053 3049 0
-3053 3048 0
3054 -3043 -3048 -3050 0
-3054 3043 0
-3054 3048 0
-3054 3050 0
3055 -3049 -3047 -3049 0
-3055 3049 0
-3055 3047 0
-3055 3049 0
3056 -3045 -3048 -3043 0
-3056 3045 0
-3056 3048 0
-3056 3043 0
3057 -3042 -3041 -3041 0
-3057 3042 0
-3057 3041 0
-3057 3041 0
3058 -3047 -3048 -3041 0
-3058 3047 0
-3058 3048 0
-3058 3041 0
3059 -3050 -3043 -3042 0
-3059 3050 0
-3059 3043 0
-3059 3042 0
3060 -3048 -3045 -3045 0
-3060 3048 0
-3060 3045 0
-3060 3045 0
3061 -3058 -3058 -3057 0
-3061 3058 0
-3061 3058 0
-3061 3057 0
3062 -3053 -3053 -3052 0
-3062 3053 0
-3062 3053 0
-3062 3052 0
3063 -3057 -3058 -3054 0
-3063 3057 0
-3063 3058 0
-3063 3054 0
3064 -3059 -3058 -3051 0
-3064 3059 0
-3064 3058 0
-3064 3051 0
3065 -3058 -3060 -3054 0
-3065 3058 0
-3065 3060 0
-3065 3054 0
3066 -3056 -3056 -3051 0
-3066 3056 0
-3066 3056 0
-3066 3051 0
3067 -3056 -3054 -3058 0
-3067 3056 0
-3067 3054 0
-3067 3058 0
3068 -3056 -3051 -3053 0
-3068 3056 0
-3068 3051 0
-3068 3053 0
3069 -3051 -3055 -3055 0
-3069 3051 0
-3069 3055 0
-3069 3055 0
3070 -3057 -3057 -3051 0
-3070 3057 0
-3070 3057 0
-3070 3051 0
3071 -3070 -3067 -3066 0
-3071 3070 0
-3071 3067 0
-3071 3066 0
3072 -3069 -3065 -3066 0
-3072 3069 0
-3072 3065 0
-3072 3066 0
3073 -3069 -3068 -3065 0
-3073 3069 0
-3073 3068 0
-3073 3065 0
3074 -3070 -3064 -3066 0
-3074 3070 0
-3074 3064 0
-3074 3066 0
3075 -3070 -3061 -3064 0
-3075 3070 0
-3075 3061 0
-3075 3064 0
3076 -3061 -3064 -3069 0
-3076 3061 0
-3076 3064 0
-3076 3069 0
3077 -3070 -3067 -3070 0
-3077 3070 0
-3077 3067 0
-3077 3070 0
3078 -3062 -3061 -3063 0
-3078 3062 0
-3078 3061 0
-3078 3063 0
3079 -3068 -3066 -3061 0
-3079 3068 0
-3079 3066 0
-3079 3061 0
3080 -3063 -3069 -3069 0
-3080 3063 0
-3080 3069 0
-3080 3069 0
3081 -3080 -3071 -3079 0
-3081 3080 0
-3081 3071 0
-3081 3079 0
3082 -3071 -3074 -3076 0
-3082 3071 0
-3082 3074 0
-3082 3076 0
3083 -3074 -3076 -3071 0
-3083 3074 0
-3083 3076 0
-3083 3071 0
3084 -3074 -3073 -3079 0
-3084 3074 0
-3084 3073 0
-3084 3079 0
3085 -3071 -3079 -3073 0
-3085 3071 0
-3085 3079 0
-3085 3073 0
3086 -3079 -3075 -3080 0
-3086 3079 0
-3086 3075 0
-3086 3080 0
3087 -3078 -3077 -3072 0
-3087 3078 0
-3087 3077 0
-3087 3072 0
3088 -3074 -3076 -3073 0
-3088 3074 0
-3088 3076 0
-3088 3073 0
3089 -3071 -3079 -3073 0
-3089 3071 0
-3089 3079 0
-3089 3073 0
3090 -3073 -3074 -3075 0
-3090 3073 0
-3090 3074 0
-3090 3075 0
3091 -3084 -3081 -3084 0
-3091 3084 0
-3091 3081 0
-3091 3084 0
3092 -3087 -3083 -3088 0
-3092 3087 0
-3092 3083 0
-3092 3088 0
3093 -3085 -3082 -3086 0
-3093 3085 0
-3093 3082 0
-3093 3086 0
3094 -3088 -3083 -3084 0
-3094 3088 0
-3094 3083 0
-3094 3084 0
3095 -3086 -3083 -3088 0
-3095 3086 0
-3095 3083 0
-3095 3088 0
3096 -3085 -3089 -3081 0
-3096 3085 0
-3096 3089 0
-3096 3081 0
3097 -3086 -3083 -3085 0
-3097 3086 0
-3097 3083 0
-3097 3085 0
3098 -3084 -3081 -3088 0
-3098 3084 0
-3098 3081 0
-3098 3088 0
3099 -3083 -3084 -3083 0
-3099 3083 0
-3099 3084 0
-3099 3083 0
3100 -3081 -3082 -3083 0
-3100 3081 0
-3100 3082 0
-3100 3083 0
3101 -3096 -3100 -3096 0
-3101 3096 0
-3101 3100 0
-3101 3096 0
3102 -3100 -3096 -3096 0
-3102 3100 0
-3102 3096 0
-3102 3096 0
3103 -3097 -3093 -3091 0
-3103 3097 0
-3103 3093 0
-3103 3091 0
3104 -3095 -3095 -3097 0
-3104 3095 0
-3104 3095 0
-3104 3097 0
3105 -3100 -3093 -3093 0
-3105 3100 0
-3105 3093 0
-3105 3093 0
3106 -3096 -3091 -3091 0
-3106 3096 0
-3106 3091 0
-3106 3091 0
3107 -3096 -3093 -3091 0
-3107 3096 0
-3107 3093 0
-3107 3091 0
3108 -3094 -3094 -3100 0
-3108 3094 0
-3108 3094 0
-3108 3100 0
3109 -3099 -3093 -3092 0
-3109 3099 0
-3109 3093 0
-3109 3092 0
3110 -3092 -3095 -3094 0
-3110 3092 0
-3110 3095 0
-3110 3094 0
3111 -3103 -3104 -3106 0
-3111 3103 0
-3111 3104 0
-3111 3106 0
3112 -3105 -3101 -3110 0
-3112 3105 0
-3112 3101 0
-3112 3110 0
3113 -3107 -3105 -3108 0
-3113 3107 0
-3113 3105 0
-3113 3108 0
3114 -3103 -3106 -3102 0
-3114 3103 0
-3114 3106 0
-3114 3102 0
3115 -3104 -3106 -3105 0
-3115 3104 0
-3115 3106 0
-3115 3105 0
3116 -3109 -3101 -3109 0
-3116 3109 0
-3116 3101 0
-3116 3109 0
3117 -3106 -3110 -3108 0
-3117 3106 0
-3117 3110 0
-3117 3108 0
3118 -3101 -3102 -3109 0
-3118 3101 0
-3118 3102 0
-3118 3109 0
3119 -3109 -3110 -3104 0
-3119 3109 0
-3119 3110 0
-3119 3104 0
3120 -3101 -3103 -3108 0
-3120 3101 0
-3120 3103 0
-3120 3108 0
3121 -3112 -3118 -3115 0
-3121 3112 0
-3121 3118 0
-3121 3115 0
3122 -3114 -3116 -3120 0
-3122 3114 0
-3122 3116 0
-3122 3120 0
3123 -3120 -3118 -3111 0
-3123 3120 0
-3123 3118 0
-3123 3111 0
3124 -3119 -3112 -3111 0
-3124 3119 0
-3124 3112 0
-3124 3111 0
3125 -3117 -3118 -3117 0
-3125 3117 0
-3125 3118 0
-3125 3117 0
3126 -3113 -3112 -3111 0
-3126 3113 0
-3126 3112 0
-3126 3111 0
3127 -3119 -3120 -3111 0
-3127 3119 0
-3127 3120 0
-3127 3111 0
3128 -3111 -3112 -3117 0
-3128 3111 0
-3128 3112 0
-3128 3117 0
3129 -3113 -3117 -3115 0
-3129 3113 0
-3129 3117 0
-3129 3115 0
3130 -3116 -3118 -3118 0
-3130 3116 0
-3130 3118 0
-3130 3118 0
3131 -3121 -3130 -3122 0
-3131 3121 0
-3131 3130 0
-3131 3122 0
3132 -3123 -3123 -3127 0
-3132 3123 0
-3132 3123 0
-3132 3127 0
3133 -3122 -3126 -3129 0
-3133 3122 0
-3133 3126 0
-3133 3129 0
3134 -3130 -3129 -3125 0
-3134 3130 0
-3134 3129 0
-3134 3125 0
3135 -3125 -3128 -3130 0
-3135 3125 0
-3135 3128 0
-3135 3130 0
3136 -3129 -3130 -3129 0
-3136 3129 0
-3136 3130 0
-3136 3129 0
3137 -3123 -3125 -3122 0
-3137 3123 0
-3137 3125 0
-3137 3122 0
3138 -3125 -3123 -3128 0
-3138 3125 0
-3138 3123 0
-3138 3128 0
3139 -3129 -3130 -3126 0
-3139 3129 0
-3139 3130 0
-3139 3126 0
3140 -3123 -3125 -3130 0
-3140 3123 0
-3140 3125 0
-3140 3130 0
3141 -3136 -3138 -3138 0
-3141 3136 0
-3141 3138 0
-3141 3138 0
3142 -3138 -3134 -3136 0
-3142 3138 0
-3142 3134 0
-3142 3136 0
3143 -3140 -3131 -3139 0
-3143 3140 0
-3143 3131 0
-3143 3139 0
3144 -3136 -3136 -3137 0
-3144 3136 0
-3144 3136 0
-3144 3137 0
3145 -3137 -3134 -3135 0
-3145 3137 0
-3145 3134 0
-3145 3135 0
3146 -3140 -3139 -3137 0
-3146 3140 0
-3146 3139 0
-3146 3137 0
3147 -3139 -3134 -3132 0
-3147 3139 0
-3147 3134 0
-3147 3132 0
3148 -3135 -3132 -3134 0
-3148 3135 0
-3148 3132 0
-3148 3134 0
3149 -3133 -3136 -3140 0
-3149 3133 0
-3149 3136 0
-3149 3140 0
3150 -3137 -3134 -3133 0
-3150 3137 0
-3150 3134 0
-3150 3133 0
3151 -3150 -3146 -3146 0
-3151 3150 0
-3151 3146 0
-3151 3146 0
3152 -3149 -3149 -3148 0
-3152 3149 0
-3152 3149 0
-3152 3148 0
3153 -3149 -3150 -3149 0
-3153 3149 0
-3153 3150 0
-3153 3149 0
3154 -3142 -3142 -3147 0
-3154 3142 0
-3154 3142 0
-3154 3147 0
3155 -3142 -3150 -3144 0
-3155 3142 0
-3155 3150 0
-3155 3144 0
3156 -3146 -3145 -3146 0
-3156 3146 0
-3156 3145 0
-3156 3146 0
3157 -3141 -3143 -3142 0
-3157 3141 0
-3157 3143 0
-3157 3142 0
3158 -3142 -3147 -3142 0
-3158 3142 0
-3158 3147 0
-3158 3142 0
3159 -3147 -3142 -3147 0
-3159 3147 0
-3159 3142 0
-3159 3147 0
3160 -3144 -3142 -3141 0
-3160 3144 0
-3160 3142 0
-3160 3141 0
3161 -3151 -3157 -3151 0
-3161 3151 0
-3161 3157 0
-3161 3151 0
3162 -3155 -3159 -3155 0
-3162 3155 0
-3162 3159 0
-3162 3155 0
3163 -3151 -3155 -3151 0
-3163 3151 0
-3163 3155 0
-3163 3151 0
3164 -3154 -3159 -3157 0
-3164 3154 0
-3164 3159 0
-3164 3157 0
3165 -3154 -3155 -3155 0
-3165 3154 0
-3165 3155 0
-3165 3155 0
3166 -3158 -3160 -3152 0
-3166 3158 0
-3166 3160 0
-3166 3152 0
3167 -3152 -3152 -3155 0
-3167 3152 0
-3167 3152 0
-3167 3155 0
3168 -3157 -3156 -3158 0
-3168 3157 0
-3168 3156 0
-3168 3158 0
3169 -3156 -3158 -3152 0
-3169 3156 0
-3169 3158 0
-3169 3152 0
3170 -3155 -3155 -3159 0
-3170 3155 0
-3170 3155 0
-3170 3159 0
3171 -3162 -3162 -3166 0
-3171 3162 0
-3171 3162 0
-3171 3166 0
3172 -3165 -3168 -3170 0
-3172 3165 0
-3172 3168 0
-3172 3170 0
3173 -3169 -3166 -3169 0
-3173 3169 0
-3173 3166 0
-3173 3169 0
3174 -3166 -3166 -3169 0
-3174 3166 0
-3174 3166 0
-3174 3169 0
3175 -3161 -3165 -3163 0
-3175 3161 0
-3175 3165 0
-3175 3163 0
3176 -3168 -3169 -3161 0
-3176 3168 0
-3176 3169 0
-3176 3161 0
3177 -3170 -3161 -3163 0
-3177 3170 0
-3177 3161 0
-3177 3163 0
3178 -3169 -3163 -3162 0
-3178 3169 0
-3178 3163 0
-3178 3162 0
3179 -3168 -3169 -3163 0
-3179 3168 0
-3179 3169 0
-3179 3163 0
3180 -3162 -3164 -3162 0
-3180 3162 0
-3180 3164 0
-3180 3162 0
3181 -3180 -3177 -3172 0
-3181 3180 0
-3181 3177 0
-3181 3172 0
3182 -3171 -3172 -3176 0
-3182 3171 0
-3182 3172 0
-3182 3176 0
3183 -3174 -3178 -3172 0
-3183 3174 0
-3183 3178 0
-3183 3172 0
3184 -3174 -3171 -3180 0
-3184 3174 0
-3184 3171 0
-3184 3180 0
3185 -3177 -3177 -3175 0
-3185 3177 0
-3185 3177 0
-3185 3175 0
3186 -3178 -3171 -3176 0
-3186 3178 0
-3186 3171 0
-3186 3176 0
3187 -3171 -3177 -3173 0
-3187 3171 0
-3187 3177 0
-3187 3173 0
3188 -3174 -3180 -3175 0
-3188 3174 0
-3188 3180 0
-3188 3175 0
3189 -3174 -3173 -3178 0
-3189 3174 0
-3189 3173 0
-3189 3178 0
3190 -3179 -3178 -3175 0
-3190 3179 0
-3190 3178 0
-3190 3175 0
3191 -3183 -3189 -3187 0
-3191 3183 0
-3191 3189 0
-3191 3187 0
3192 -3182 -3190 -3188 0
-3192 3182 0
-3192 3190 0
-3192 3188 0
3193 -3184 -3190 -3185 0
-3193 3184 0
-3193 3190 0
-3193 3185 0
3194 -3181 -3187 -3183 0
-3194 3181 0
-3194 3187 0
-3194 3183 0
3195 -3185 -3187 -3185 0
-3195 3185 0
-3195 3187 0
-3195 3185 0
3196 -3181 -3188 -3185 0
-3196 3181 0
-3196 3188 0
-3196 3185 0
3197 -3187 -3184 -3187 0
-3197 3187 0
-3197 3184 0
-3197 3187 0
3198 -3183 -3184 -3186 0
-3198 3183 0
-3198 3184 0
-3198 3186 0
3199 -3187 -3189 -3187 0
-3199 3187 0
-3199 3189 0
-3199 3187 0
3200 -3183 -3184 -3187 0
-3200 3183 0
-3200 3184 0
-3200 3187 0
3201 -3194 -3191 -3198 0
-3201 3194 0
-3201 3191 0
-3201 3198 0
3202 -3193 -3199 -3198 0
-3202 3193 0
-3202 3199 0
-3202 3198 0
3203 -3200 -3198 -3198 0
-3203 3200 0
-3203 3198 0
-3203 3198 0
3204 -3192 -3200 -3200 0
-3204 3192 0
-3204 3200 0
-3204 3200 0
3205 -3193 -3197 -3193 0
-3205 3193 0
-3205 3197 0
-3205 3193 0
3206 -3195 -3196 -3194 0
-3206 3195 0
-3206 3196 0
-3206 3194 0
3207 -3193 -3200 -3194 0
-3207 3193 0
-3207 3200 0
-3207 3194 0
3208 -3192 -3194 -3195 0
-3208 3192 0
-3208 3194 0
-3208 3195 0
3209 -3198 -3199 -3192 0
-3209 3198 0
-3209 3199 0
-3209 3192 0
3210 -3196 -3199 -3199 0
-3210 3196 0
-3210 3199 0
-3210 3199 0
3211 -3201 -3205 -3204 0
-3211 3201 0
-3211 3205 0
-3211 3204 0
3212 -3210 -3202 -3203 0
-3212 3210 0
-3212 3202 0
-3212 3203 0
3213 -3201 -3203 -3202 0
-3213 3201 0
-3213 3203 0
-3213 3202 0
3214 -3204 -3207 -3203 0
-3214 3204 0
-3214 3207 0
-3214 3203 0
3215 -3208 -3206 -3206 0
-3215 3208 0
-3215 3206 0
-3215 3206 0
3216 -3202 -3208 -3207 0
-3216 3202 0
-3216 3208 0
-3216 3207 0
3217 -3208 -3203 -3210 0
-3217 3208 0
-3217 3203 0
-3217 3210 0
3218 -3203 -3209 -3206 0
-3218 3203 0
-3218 3209 0
-3218 3206 0
3219 -3203 -3208 -3202 0
-3219 3203 0
-3219 3208 0
-3219 3202 0
3220 -3209 -3204 -3208 0
-3220 3209 0
-3220 3204 0
-3220 3208 0
3221 -3219 -3211 -3212 0
-3221 3219 0
-3221 3211 0
-3221 3212 0
3222 -3219 -3215 -3218 0
-3222 3219 0
-3222 3215 0
-3222 3218 0
3223 -3213 -3213 -3218 0
-3223 3213 0
-3223 3213 0
-3223 3218 0
3224 -3213 -3216 -3220 0
-3224 3213 0
-3224 3216 0
-3224 3220 0
3225 -3214 -3211 -3212 0
-3225 3214 0
-3225 3211 0
-3225 3212 0
3226 -3211 -3213 -3213 0
-3226 3211 0
-3226 3213 0
-3226 3213 0
3227 -3219 -3217 -3216 0
-3227 3219 0
-3227 3217 0
-3227 3216 0
3228 -3216 -3218 -3213 0
-3228 3216 0
-3228 3218 0
-3228 3213 0
3229 -3215 -3217 -3212 0
-3229 3215 0
-3229 3217 0
-3229 3212 0
3230 -3211 -3217 -3216 0
-3230 3211 0
-3230 3217 0
-3230 3216 0
3231 -3221 -3227 -3225 0
-3231 3221 0
-3231 3227 0
-3231 3225 0
3232 -3222 -3221 -3226 0
-3232 3222 0
-3232 3221 0
-3232 3226 0
3233 -3229 -3222 -3224 0
-3233 3229 0
-3233 3222 0
-3233 3224 0
3234 -3230 -3225 -3222 0
-3234 3230 0
-3234 3225 0
-3234 3222 0
3235 -3229 -3228 -3221 0
-3235 3229 0
-3235 3228 0
-3235 3221 0
3236 -3230 -3225 -3230 0
-3236 3230 0
-3236 3225 0
-3236 3230 0
3237 -3226 -3223 -3227 0
-3237 3226 0
-3237 3223 0
-3237 3227 0
3238 -3222 -3229 -3221 0
-3238 3222 0
-3238 3229 0
-3238 3221 0
3239 -3222 -3230 -3221 0
-3239 3222 0
-3239 3230 0
-3239 3221 0
3240 -3230 -3226 -3230 0
-3240 3230 0
-3240 3226 0
-3240 3230 0
3241 -3236 -3236 -3235 0
-3241 3236 0
-3241 3236 0
-3241 3235 0
3242 -3231 -3232 -3239 0
-3242 3231 0
-3242 3232 0
-3242 3239 0
3243 -3231 -3240 -3240 0
-3243 3231 0
-3243 3240 0
-3243 3240 0
3244 -3234 -3239 -3237 0
-3244 3234 0
-3244 3239 0
-3244 3237 0
3245 -3231 -3237 -3239 0
-3245 3231 0
-3245 3237 0
-3245 3239 0
3246 -3240 -3237 -3232 0
-3246 3240 0
-3246 3237 0
-3246 3232 0
3247 -3233 -3234 -3236 0
-3247 3233 0
-3247 3234 0
-3247 3236 0
3248 -3238 -3240 -3235 0
-3248 3238 0
-3248 3240 0
-3248 3235 0
3249 -3231 -3237 -3231 0
-3249 3231 0
-3249 3237 0
-3249 3231 0
3250 -3236 -3236 -3233 0
-3250 3236 0
-3250 3236 0
-3250 3233 0
3251 -3243 -3247 -3241 0
-3251 3243 0
-3251 3247 0
-3251 3241 0
3252 -3243 -3243 -3242 0
-3252 3243 0
-3252 3243 0
-3252 3242 0
3253 -3245 -3244 -3248 0
-3253 3245 0
-3253 3244 0
-3253 3248 0
3254 -3248 -3248 -3249 0
-3254 3248 0
-3254 3248 0
-3254 3249 0
3255 -3243 -3242 -3244 0
-3255 3243 0
-3255 3242 0
-3255 3244 0
3256 -3241 -3250 -3243 0
-3256 3241 0
-3256 3250 0
-3256 3243 0
3257 -3248 -3241 -3243 0
-3257 3248 0
-3257 3241 0
-3257 3243 0
3258 -3244 -3249 -3244 0
-3258 3244 0
-3258 3249 0
-3258 3244 0
3259 -3244 -3241 -3241 0
-3259 3244 0
-3259 3241 0
-3259 3241 0
3260 -3248 -3250 -3244 0
-3260 3248 0
-3260 3250 0
-3260 3244 0
3261 -3252 -3253 -3256 0
-3261 3252 0
-3261 3253 0
-3261 3256 0
3262 -3258 -3260 -3255 0
-3262 3258 0
-3262 3260 0
-3262 3255 0
3263 -3257 -3254 -3254 0
-3263 3257 0
-3263 3254 0
-3263 3254 0
3264 -3260 -3255 -3260 0
-3264 3260 0
-3264 3255 0
-3264 3260 0
3265 -3257 -3257 -3251 0
-3265 3257 0
-3265 3257 0
-3265 3251 0
3266 -3253 -3252 -3259 0
-3266 3253 0
-3266 3252 0
-3266 3259 0
3267 -3255 -3260 -3258 0
-3267 3255 0
-3267 3260 0
-3267 3258 0
3268 -3257 -3255 -3260 0
-3268 3257 0
-3268 3255 0
-3268 3260 0
3269 -3255 -3256 -3259 0
-3269 3255 0
-3269 3256 0
-3269 3259 0
3270 -3255 -3260 -3259 0
-3270 3255 0
-3270 3260 0
-3270 3259 0
3271 -3270 -3262 -3269 0
-3271 3270 0
-3271 3262 0
-3271 3269 0
3272 -3261 -3269 -3262 0
-3272 3261 0
-3272 3269 0
-3272 3262 0
3273 -3267 -3265 -3264 0
-3273 3267 0
-3273 3265 0
-3273 3264 0
3274 -3262 -3265 -3265 0
-3274 3262 0
-3274 3265 0
-3274 3265 0
3275 -3270 -3265 -3264 0
-3275 3270 0
-3275 3265 0
-3275 3264 0
3276 -3265 -3270 -3264 0
-3276 3265 0
-3276 3270 0
-3276 3264 0
3277 -3270 -3262 -3268 0
-3277 3270 0
-3277 3262 0
-3277 3268 0
3278 -3270 -3270 -3266 0
-3278 3270 0
-3278 3270 0
-3278 3266 0
3279 -3269 -3265 -3264 0
-3279 3269 0
-3279 3265 0
-3279 3264 0
3280 -3265 -3268 -3261 0
-3280 3265 0
-3280 3268 0
-3280 3261 0
3281 -3276 -3274 -3280 0
-3281 3276 0
-3281 3274 0
-3281 3280 0
3282 -3277 -3271 -3276 0
-3282 3277 0
-3282 3271 0
-3282 3276 0
3283 -3271 -3278 -3276 0
-3283 3271 0
-3283 3278 0
-3283 3276 0
3284 -3275 -3275 -3273 0
-3284 3275 0
-3284 3275 0
-3284 3273 0
3285 -3271 -3276 -3272 0
-3285 3271 0
-3285 3276 0
-3285 3272 0
3286 -3273 -3280 -3274 0
-3286 3273 0
-3286 3280 0
-3286 3274 0
3287 -3276 -3276 -3278 0
-3287 3276 0
-3287 3276 0
-3287 3278 0
3288 -3279 -3276 -3275 0
-3288 3279 0
-3288 3276 0
-3288 3275 0
3289 -3272 -3272 -3274 0
-3289 3272 0
-3289 3272 0
-3289 3274 0
3290 -3271 -3274 -3279 0
-3290 3271 0
-3290 3274 0
-3290 3279 0
3291 -3289 -3285 -3283 0
-3291 3289 0
-3291 3285 0
-3291 3283 0
3292 -3281 -3285 -3287 0
-3292 3281 0
-3292 3285 0
-3292 3287 0
3293 -3285 -3290 -3288 0
-3293 3285 0
-3293 3290 0
-3293 3288 0
3294 -3286 -3282 -3290 0
-3294 3286 0
-3294 3282 0
-3294 3290 0
3295 -3282 -3282 -3286 0
-3295 3282 0
-3295 3282 0
-3295 3286 0
3296 -3285 -3290 -3281 0
-3296 3285 0
-3296 3290 0
-3296 3281 0
3297 -3285 -3286 -3281 0
-3297 3285 0
-3297 3286 0
-3297 3281 0
3298 -3286 -3281 -3284 0
-3298 3286 0
-3298 3281 0
-3298 3284 0
3299 -3286 -3286 -3286 0
-3299 3286 0
-3299 3286 0
-3299 3286 0
3300 -3281 -3283 -3288 0
-3300 3281 0
-3300 3283 0
-3300 3288 0
3301 -3293 -3291 -3299 0
-3301 3293 0
-3301 3291 0
-3301 3299 0
3302 -3297 -3297 -3295 0
-3302 3297 0
-3302 3297 0
-3302 3295 0
3303 -3300 -3299 -3293 0
-3303 3300 0
-3303 3299 0
-3303 3293 0
3304 -3291 -3297 -3295 0
-3304 3291 0
-3304 3297 0
-3304 3295 0
3305 -3300 -3293 -3297 0
-3305 3300 0
-3305 3293 0
-3305 3297 0
3306 -3298 -3296 -3293 0
-3306 3298 0
-3306 3296 0
-3306 3293 0
3307 -3298 -3294 -3295 0
-3307 3298 0
-3307 3294 0
-3307 3295 0
3308 -3293 -3297 -3293 0
-3308 3293 0
-3308 3297 0
-3308 3293 0
3309 -3294 -3294 -3296 0
-3309 3294 0
-3309 3294 0
-3309 3296 0
3310 -3295 -3291 -3299 0
-3310 3295 0
-3310 3291 0
-3310 3299 0
3311 -3303 -3310 -3304 0
-3311 3303 0
-3311 3310 0
-3311 3304 0
3312 -3303 -3302 -3308 0
-3312 3303 0
-3312 3302 0
-3312 3308 0
3313 -3305 -3303 -3304 0
-3313 3305 0
-3313 3303 0
-3313 3304 0
3314 -3302 -3301 -3302 0
-3314 3302 0
-3314 3301 0
-3314 3302 0
3315 -3304 -3307 -3309 0
-3315 3304 0
-3315 3307 0
-3315 3309 0
3316 -3304 -3303 -3306 0
-3316 3304 0
-3316 3303 0
-3316 3306 0
3317 -3308 -3306 -3310 0
-3317 3308 0
-3317 3306 0
-3317 3310 0
3318 -3303 -3310 -3309 0
-3318 3303 0
-3318 3310 0
-3318 3309 0
3319 -3306 -3307 -3301 0
-3319 3306 0
-3319 3307 0
-3319 3301 0
3320 -3305 -3305 -3307 0
-3320 3305 0
-3320 3305 0
-3320 3307 0
3321 -3311 -3318 -3316 0
-3321 3311 0
-3321 3318 0
-3321 3316 0
3322 -3319 -3318 -3316 0
-3322 3319 0
-3322 3318 0
-3322 3316 0
3323 -3320 -3312 -3320 0
-3323 3320 0
-3323 3312 0
-3323 3320 0
3324 -3315 -3319 -3317 0
-3324 3315 0
-3324 3319 0
-3324 3317 0
3325 -3312 -3318 -3319 0
-3325 3312 0
-3325 3318 0
-3325 3319 0
3326 -3312 -3311 -3315 0
-3326 3312 0
-3326 3311 0
-3326 3315 0
3327 -3315 -3317 -3319 0
-3327 3315 0
-3327 3317 0
-3327 3319 0
3328 -3314 -3317 -3311 0
-3328 3314 0
-3328 3317 0
-3328 3311 0
3329 -3314 -3316 -3319 0
-3329 3314 0
-3329 3316 0
-3329 3319 0
3330 -3315 -3311 -3315 0
-3330 3315 0
-3330 3311 0
-3330 3315 0
3331 -3322 -3323 -3324 0
-3331 3322 0
-3331 3323 0
-3331 3324 0
3332 -3321 -3327 -3324 0
-3332 3321 0
-3332 3327 0
-3332 3324 0
3333 -3323 -3329 -3324 0
-3333 3323 0
-3333 3329 0
-3333 3324 0
3334 -3323 -3330 -3330 0
-3334 3323 0
-3334 3330 0
-3334 3330 0
3335 -3327 -3322 -3321 0
-3335 3327 0
-3335 3322 0
-3335 3321 0
3336 -3328 -3328 -3326 0
-3336 3328 0
-3336 3328 0
-3336 3326 0
3337 -3324 -3325 -3326 0
-3337 3324 0
-3337 3325 0
-3337 3326 0
3338 -3324 -3328 -3330 0
-3338 3324 0
-3338 3328 0
-3338 3330 0
3339 -3323 -3329 -3324 0
-3339 3323 0
-3339 3329 0
-3339 3324 0
3340 -3330 -3323 -3326 0
-3340 3330 0
-3340 3323 0
-3340 3326 0
3341 -3335 -3335 -3337 0
-3341 3335 0
-3341 3335 0
-3341 3337 0
3342 -3335 -3340 -3334 0
-3342 3335 0
-3342 3340 0
-3342 3334 0
3343 -3340 -3334 -3340 0
-3343 3340 0
-3343 3334 0
-3343 3340 0
3344 -3331 -3334 -3339 0
-3344 3331 0
-3344 3334 0
-3344 3339 0
3345 -3332 -3334 -3336 0
-3345 3332 0
-3345 3334 0
-3345 3336 0
3346 -3334 -3334 -3331 0
-3346 3334 0
-3346 3334 0
-3346 3331 0
3347 -3332 -3339 -3334 0
-3347 3332 0
-3347 3339 0
-3347 3334 0
3348 -3336 -3337 -3337 0
-3348 3336 0
-3348 3337 0
-3348 3337 0
3349 -3336 -3337 -3335 0
-3349 3336 0
-3349 3337 0
-3349 3335 0
3350 -3333 -3333 -3340 0
-3350 3333 0
-3350 3333 0
-3350 3340 0
3351 -3343 -3349 -3343 0
-3351 3343 0
-3351 3349 0
-3351 3343 0
3352 -3348 -3346 -3348 0
-3352 3348 0
-3352 3346 0
-3352 3348 0
3353 -3345 -3341 -3342 0
-3353 3345 0
-3353 3341 0
-3353 3342 0
3354 -3348 -3348 -3348 0
-3354 3348 0
-3354 3348 0
-3354 3348 0
3355 -3347 -3349 -3343 0
-3355 3347 0
-3355 3349 0
-3355 3343 0
3356 -3349 -3342 -3348 0
-3356 3349 0
-3356 3342 0
-3356 3348 0
3357 -3346 -3349 -3344 0
-3357 3346 0
-3357 3349 0
-3357 3344 0
3358 -3343 -3346 -3344 0
-3358 3343 0
-3358 3346 0
-3358 3344 0
3359 -3350 -3350 -3350 0
-3359 3350 0
-3359 3350 0
-3359 3350 0
3360 -3346 -3344 -3347 0
-3360 3346 0
-3360 3344 0
-3360 3347 0
3361 -3353 -3354 -3356 0
-3361 3353 0
-3361 3354 0
-3361 3356 0
3362 -3355 -3356 -3355 0
-3362 3355 0
-3362 3356 0
-3362 3355 0
3363 -3351 -3358 -3358 0
-3363 3351 0
-3363 3358 0
-3363 3358 0
3364 -3353 -3359 -3353 0
-3364 3353 0
-3364 3359 0
-3364 3353 0
3365 -3356 -3356 -3359 0
-3365 3356 0
-3365 3356 0
-3365 3359 0
3366 -3355 -3354 -3357 0
-3366 3355 0
-3366 3354 0
-3366 3357 0
3367 -3356 -3352 -3355 0
-3367 3356 0
-3367 3352 0
-3367 3355 0
3368 -3354 -3353 -3353 0
-3368 3354 0
-3368 3353 0
-3368 3353 0
3369 -3354 -3354 -3357 0
-3369 3354 0
-3369 3354 0
-3369 3357 0
3370 -3353 -3360 -3358 0
-3370 3353 0
-3370 3360 0
-3370 3358 0
3371 -3364 -3364 -3362 0
-3371 3364 0
-3371 3364 0
-3371 3362 0
3372 -3362 -3368 -3361 0
-3372 3362 0
-3372 3368 0
-3372 3361 0
3373 -3363 -3370 -3364 0
-3373 3363 0
-3373 3370 0
-3373 3364 0
3374 -3366 -3361 -3364 0
-3374 3366 0
-3374 3361 0
-3374 3364 0
3375 -3370 -3361 -3369 0
-3375 3370 0
-3375 3361 0
-3375 3369 0
3376 -3369 -3370 -3366 0
-3376 3369 0
-3376 3370 0
-3376 3366 0
3377 -3366 -3366 -3370 0
-3377 3366 0
-3377 3366 0
-3377 3370 0
3378 -3370 -3362 -3366 0
-3378 3370 0
-3378 3362 0
-3378 3366 0
3379 -3370 -3366 -3362 0
-3379 3370 0
-3379 3366 0
-3379 3362 0
3380 -3367 -3365 -3361 0
-3380 3367 0
-3380 3365 0
-3380 3361 0
3381 -3374 -3376 -3377 0
-3381 3374 0
-3381 3376 0
-3381 3377 0
3382 -3372 -3378 -3375 0
-3382 3372 0
-3382 3378 0
-3382 3375 0
3383 -3372 -3379 -3373 0
-3383 3372 0
-3383 3379 0
-3383 3373 0
3384 -3378 -3377 -3376 0
-3384 3378 0
-3384 3377 0
-3384 3376 0
3385 -3372 -3372 -3373 0
-3385 3372 0
-3385 3372 0
-3385 3373 0
3386 -3375 -3374 -3374 0
-3386 3375 0
-3386 3374 0
-3386 3374 0
3387 -3375 -3380 -3374 0
-3387 3375 0
-3387 3380 0
-3387 3374 0
3388 -3377 -3375 -3376 0
-3388 3377 0
-3388 3375 0
-3388 3376 0
3389 -3378 -3374 -3377 0
-3389 3378 0
-3389 3374 0
-3389 3377 0
3390 -3378 -3374 -3379 0
-3390 3378 0
-3390 3374 0
-3390 3379 0
3391 -3381 -3386 -3385 0
-3391 3381 0
-3391 3386 0
-3391 3385 0
3392 -3383 -3382 -3382 0
-3392 3383 0
-3392 3382 0
-3392 3382 0
3393 -3381 -3388 -3390 0
-3393 3381 0
-3393 3388 0
-3393 3390 0
3394 -3389 -3385 -3383 0
-3394 3389 0
-3394 3385 0
-3394 3383 0
3395 -3382 -3381 -3384 0
-3395 3382 0
-3395 3381 0
-3395 3384 0
3396 -3383 -3387 -3382 0
-3396 3383 0
-3396 3387 0
-3396 3382 0
3397 -3390 -3381 -3384 0
-3397 3390 0
-3397 3381 0
-3397 3384 0
3398 -3389 -3385 -3381 0
-3398 3389 0
-3398 3385 0
-3398 3381 0
3399 -3385 -3386 -3385 0
-3399 3385 0
-3399 3386 0
-3399 3385 0
3400 -3388 -3384 -3386 0
-3400 3388 0
-3400 3384 0
-3400 3386 0
3401 -3394 -3400 -3396 0
-3401 3394 0
-3401 3400 0
-3401 3396 0
3402 -3393 -3391 -3398 0
-3402 3393 0
-3402 3391 0
-3402 3398 0
3403 -3395 -3394 -3398 0
-3403 3395 0
-3403 3394 0
-3403 3398 0
3404 -3399 -3392 -3399 0
-3404 3399 0
-3404 3392 0
-3404 3399 0
3405 -3399 -3396 -3392 0
-3405 3399 0
-3405 3396 0
-3405 3392 0
3406 -3396 -3397 -3392 0
-3406 3396 0
-3406 3397 0
-3406 3392 0
3407 -3395 -3391 -3392 0
-3407 3395 0
-3407 3391 0
-3407 3392 0
3408 -3397 -3400 -3391 0
-3408 3397 0
-3408 3400 0
-3408 3391 0
3409 -3399 -3400 -3397 0
-3409 3399 0
-3409 3400 0
-3409 3397 0
3410 -3397 -3396 -3398 0
-3410 3397 0
-3410 3396 0
-3410 3398 0
3411 -3404 -3404 -3406 0
-3411 3404 0
-3411 3404 0
-3411 3406 0
3412 -3401 -3403 -3408 0
-3412 3401 0
-3412 3403 0
-3412 3408 0
3413 -3403 -3402 -3407 0
-3413 3403 0
-3413 3402 0
-3413 3407 0
3414 -3402 -3405 -3402 0
-3414 3402 0
-3414 3405 0
-3414 3402 0
3415 -3401 -3409 -3404 0
-3415 3401 0
-3415 3409 0
-3415 3404 0
3416 -3401 -3406 -3405 0
-3416 3401 0
-3416 3406 0
-3416 3405 0
3417 -3404 -3406 -3410 0
-3417 3404 0
-3417 3406 0
-3417 3410 0
3418 -3406 -3404 -3405 0
-3418 3406 0
-3418 3404 0
-3418 3405 0
3419 -3403 -3402 -3406 0
-3419 3403 0
-3419 3402 0
-3419 3406 0
3420 -3404 -3403 -3409 0
-3420 3404 0
-3420 3403 0
-3420 3409 0
3421 -3416 -3414 -3414 0
-3421 3416 0
-3421 3414 0
-3421 3414 0
3422 -3414 -3412 -3412 0
-3422 3414 0
-3422 3412 0
-3422 3412 0
3423 -3418 -3419 -3420 0
-3423 3418 0
-3423 3419 0
-3423 3420 0
3424 -3420 -3411 -3414 0
-3424 3420 0
-3424 3411 0
-3424 3414 0
3425 -3414 -3417 -3418 0
-3425 3414 0
-3425 3417 0
-3425 3418 0
3426 -3420 -3417 -3411 0
-3426 3420 0
-3426 3417 0
-3426 3411 0
3427 -3416 -3415 -3411 0
-3427 3416 0
-3427 3415 0
-3427 3411 0
3428 -3412 -3415 -3416 0
-3428 3412 0
-3428 3415 0
-3428 3416 0
3429 -3420 -3419 -3413 0
-3429 3420 0
-3429 3419 0
-3429 3413 0
3430 -3420 -3419 -3414 0
-3430 3420 0
-3430 3419 0
-3430 3414 0
3431 -3427 -3426 -3429 0
-3431 3427 0
-3431 3426 0
-3431 3429 0
3432 -3425 -3423 -3424 0
-3432 3425 0
-3432 3423 0
-3432 3424 0
3433 -3422 -3427 -3421 0
-3433 3422 0
-3433 3427 0
-3433 3421 0
3434 -3429 -3427 -3424 0
-3434 3429 0
-3434 3427 0
-3434 3424 0
3435 -3425 -3425 -3430 0
-3435 3425 0
-3435 3425 0
-3435 3430 0
3436 -3423 -3427 -3423 0
-3436 3423 0
-3436 3427 0
-3436 3423 0
3437 -3421 -3428 -3425 0
-3437 3421 0
-3437 3428 0
-3437 3425 0
3438 -3423 -3422 -3423 0
-3438 3423 0
-3438 3422 0
-3438 3423 0
3439 -3428 -3429 -3422 0
-3439 3428 0
-3439 3429 0
-3439 3422 0
3440 -3430 -3423 -3425 0
-3440 3430 0
-3440 3423 0
-3440 3425 0
3441 -3433 -3437 -3431 0
-3441 3433 0
-3441 3437 0
-3441 3431 0
3442 -3433 -3431 -3439 0
-3442 3433 0
-3442 3431 0
-3442 3439 0
3443 -3438 -3432 -3434 0
-3443 3438 0
-3443 3432 0
-3443 3434 0
3444 -3440 -3434 -3435 0
-3444 3440 0
-3444 3434 0
-3444 3435 0
3445 -3437 -3434 -3440 0
-3445 3437 0
-3445 3434 0
-3445 3440 0
3446 -3434 -3439 -3438 0
-3446 3434 0
-3446 3439 0
-3446 3438 0
3447 -3436 -3434 -3432 0
-3447 3436 0
-3447 3434 0
-3447 3432 0
3448 -3431 -3434 -3432 0
-3448 3431 0
-3448 3434 0
-3448 3432 0
3449 -3437 -3436 -3440 0
-3449 3437 0
-3449 3436 0
-3449 3440 0
3450 -3434 -3436 -3431 0
-3450 3434 0
-3450 3436 0
-3450 3431 0
3451 -3446 -3442 -3447 0
-3451 3446 0
-3451 3442 0
-3451 3447 0
3452 -3445 -3449 -3442 0
-3452 3445 0
-3452 3449 0
-3452 3442 0
3453 -3449 -3447 -3442 0
-3453 3449 0
-3453 3447 0
-3453 3442 0
3454 -3443 -3447 -3448 0
-3454 3443 0
-3454 3447 0
-3454 3448 0
3455 -3450 -3447 -3445 0
-3455 3450 0
-3455 3447 0
-3455 3445 0
3456 -3447 -3441 -3449 0
-3456 3447 0
-3456 3441 0
-3456 3449 0
3457 -3442 -3449 -3445 0
-3457 3442 0
-3457 3449 0
-3457 3445 0
3458 -3447 -3446 -3442 0
-3458 3447 0
-3458 3446 0
-3458 3442 0
3459 -3446 -3447 -3448 0
-3459 3446 0
-3459 3447 0
-3459 3448 0
3460 -3441 -3448 -3443 0
-3460 3441 0
-3460 3448 0
-3460 3443 0
3461 -3456 -3456 -3459 0
-3461 3456 0
-3461 3456 0
-3461 3459 0
3462 -3457 -3452 -3459 0
-3462 3457 0
-3462 3452 0
-3462 3459 0
3463 -3454 -3453 -3451 0
-3463 3454 0
-3463 3453 0
-3463 3451 0
3464 -3458 -3451 -3454 0
-3464 3458 0
-3464 3451 0
-3464 3454 0
3465 -3457 -3456 -3456 0
-3465 3457 0
-3465 3456 0
-3465 3456 0
3466 -3457 -3454 -3451 0
-3466 3457 0
-3466 3454 0
-3466 3451 0
3467 -3459 -3457 -3454 0
-3467 3459 0
-3467 3457 0
-3467 3454 0
3468 -3457 -3452 -3452 0
-3468 3457 0
-3468 3452 0
-3468 3452 0
3469 -3458 -3456 -3457 0
-3469 3458 0
-3469 3456 0
-3469 3457 0
3470 -3458 -3455 -3455 0
-3470 3458 0
-3470 3455 0
-3470 3455 0
3471 -3470 -3466 -3466 0
-3471 3470 0
-3471 3466 0
-3471 3466 0
3472 -3466 -3466 -3468 0
-3472 3466 0
-3472 3466 0
-3472 3468 0
3473 -3467 -3468 -3469 0
-3473 3467 0
-3473 3468 0
-3473 3469 0
3474 -3462 -3469 -3470 0
-3474 3462 0
-3474 3469 0
-3474 3470 0
3475 -3467 -3466 -3461 0
-3475 3467 0
-3475 3466 0
-3475 3461 0
3476 -3467 -3465 -3469 0
-3476 3467 0
-3476 3465 0
-3476 3469 0
3477 -3465 -3461 -3470 0
-3477 3465 0
-3477 3461 0
-3477 3470 0
3478 -3467 -3470 -3462 0
-3478 3467 0
-3478 3470 0
-3478 3462 0
3479 -3463 -3470 -3464 0
-3479 3463 0
-3479 3470 0
-3479 3464 0
3480 -3463 -3462 -3464 0
-3480 3463 0
-3480 3462 0
-3480 3464 0
3481 -3472 -3471 -3472 0
-3481 3472 0
-3481 3471 0
-3481 3472 0
3482 -3473 -3480 -3478 0
-3482 3473 0
-3482 3480 0
-3482 3478 0
3483 -3479 -3471 -3478 0
-3483 3479 0
-3483 3471 0
-3483 3478 0
3484 -3478 -3477 -3472 0
-3484 3478 0
-3484 3477 0
-3484 3472 0
3485 -3471 -3473 -3475 0
-3485 3471 0
-3485 3473 0
-3485 3475 0
3486 -3477 -3479 -3476 0
-3486 3477 0
-3486 3479 0
-3486 3476 0
3487 -3473 -3475 -3479 0
-3487 3473 0
-3487 3475 0
-3487 3479 0
3488 -3471 -3477 -3479 0
-3488 3471 0
-3488 3477 0
-3488 3479 0
3489 -3471 -3473 -3477 0
-3489 3471 0
-3489 3473 0
-3489 3477 0
3490 -3472 -3472 -3472 0
-3490 3472 0
-3490 3472 0
-3490 3472 0
3491 -3483 -3482 -3484 0
-3491 3483 0
-3491 3482 0
-3491 3484 0
3492 -3481 -3487 -3484 0
-3492 3481 0
-3492 3487 0
-3492 3484 0
3493 -3486 -3487 -3489 0
-3493 3486 0
-3493 3487 0
-3493 3489 0
3494 -3484 -3485 -3484 0
-3494 3484 0
-3494 3485 0
-3494 3484 0
3495 -3482 -3490 -3484 0
-3495 3482 0
-3495 3490 0
-3495 3484 0
3496 -3487 -3481 -3484 0
-3496 3487 0
-3496 3481 0
-3496 3484 0
3497 -3485 -3486 -3485 0
-3497 3485 0
-3497 3486 0
-3497 3485 0
3498 -3486 -3484 -3486 0
-3498 3486 0
-3498 3484 0
-3498 3486 0
3499 -3487 -3487 -3490 0
-3499 3487 0
-3499 3487 0
-3499 3490 0
3500 -3488 -3486 -3486 0
-3500 3488 0
-3500 3486 0
-3500 3486 0
3501 -3498 -3498 -3494 0
-3501 3498 0
-3501 3498 0
-3501 3494 0
3502 -3495 -3491 -3491 0
-3502 3495 0
-3502 3491 0
-3502 3491 0
3503 -3499 -3496 -3497 0
-3503 3499 0
-3503 3496 0
-3503 3497 0
3504 -3494 -3491 -3500 0
-3504 3494 0
-3504 3491 0
-3504 3500 0
3505 -3497 -3494 -3494 0
-3505 3497 0
-3505 3494 0
-3505 3494 0
3506 -3494 -3500 -3492 0
-3506 3494 0
-3506 3500 0
-3506 3492 0
3507 -3494 -3491 -3494 0
-3507 3494 0
-3507 3491 0
-3507 3494 0
3508 -3496 -3497 -3494 0
-3508 3496 0
-3508 3497 0
-3508 3494 0
3509 -3495 -3496 -3497 0
-3509 3495 0
-3509 3496 0
-3509 3497 0
3510 -3495 -3493 -3496 0
-3510 3495 0
-3510 3493 0
-3510 3496 0
3511 -3502 -3502 -3505 0
-3511 3502 0
-3511 3502 0
-3511 3505 0
3512 -3501 -3508 -3510 0
-3512 3501 0
-3512 3508 0
-3512 3510 0
3513 -3507 -3508 -3508 0
-3513 3507 0
-3513 3508 0
-3513 3508 0
3514 -3503 -3502 -3509 0
-3514 3503 0
-3514 3502 0
-3514 3509 0
3515 -3510 -3504 -3504 0
-3515 3510 0
-3515 3504 0
-3515 3504 0
3516 -3505 -3504 -3504 0
-3516 3505 0
-3516 3504 0
-3516 3504 0
3517 -3509 -3510 -3509 0
-3517 3509 0
-3517 3510 0
-3517 3509 0
3518 -3507 -3509 -3509 0
-3518 3507 0
-3518 3509 0
-3518 3509 0
3519 -3503 -3501 -3504 0
-3519 3503 0
-3519 3501 0
-3519 3504 0
3520 -3510 -3506 -3510 0
-3520 3510 0
-3520 3506 0
-3520 3510 0
3521 -3519 -3516 -3513 0
-3521 3519 0
-3521 3516 0
-3521 3513 0
3522 -3516 -3514 -3516 0
-3522 3516 0
-3522 3514 0
-3522 3516 0
3523 -3511 -3519 -3515 0
-3523 3511 0
-3523 3519 0
-3523 3515 0
3524 -3520 -3514 -3515 0
-3524 3520 0
-3524 3514 0
-3524 3515 0
3525 -3518 -3516 -3515 0
-3525 3518 0
-3525 3516 0
-3525 3515 0
3526 -3520 -3518 -3513 0
-3526 3520 0
-3526 3518 0
-3526 3513 0
3527 -3514 -3511 -3520 0
-3527 3514 0
-3527 3511 0
-3527 3520 0
3528 -3518 -3511 -3515 0
-3528 3518 0
-3528 3511 0
-3528 3515 0
3529 -3518 -3519 -3513 0
-3529 3518 0
-3529 3519 0
-3529 3513 0
3530 -3511 -3517 -3520 0
-3530 3511 0
-3530 3517 0
-3530 3520 0
3531 -3528 -3527 -3522 0
-3531 3528 0
-3531 3527 0
-3531 3522 0
3532 -3522 -3526 -3525 0
-3532 3522 0
-3532 3526 0
-3532 3525 0
3533 -3522 -3524 -3529 0
-3533 3522 0
-3533 3524 0
-3533 3529 0
3534 -3530 -3524 -3527 0
-3534 3530 0
-3534 3524 0
-3534 3527 0
3535 -3527 -3524 -3528 0
-3535 3527 0
-3535 3524 0
-3535 3528 0
3536 -3530 -3525 -3523 0
-3536 3530 0
-3536 3525 0
-3536 3523 0
3537 -3530 -3526 -3524 0
-3537 3530 0
-3537 3526 0
-3537 3524 0
3538 -3529 -3524 -3530 0
-3538 3529 0
-3538 3524 0
-3538 3530 0
3539 -3529 -3524 -3521 0
-3539 3529 0
-3539 3524 0
-3539 3521 0
3540 -3528 -3529 -3525 0
-3540 3528 0
-3540 3529 0
-3540 3525 0
3541 -3539 -3535 -3540 0
-3541 3539 0
-3541 3535 0
-3541 3540 0
3542 -3539 -3531 -3536 0
-3542 3539 0
-3542 3531 0
-3542 3536 0
3543 -3538 -3534 -3537 0
-3543 3538 0
-3543 3534 0
-3543 3537 0
3544 -3532 -3540 -3534 0
-3544 3532 0
-3544 3540 0
-3544 3534 0
3545 -3534 -3532 -3533 0
-3545 3534 0
-3545 3532 0
-3545 3533 0
3546 -3538 -3537 -3531 0
-3546 3538 0
-3546 3537 0
-3546 3531 0
3547 -3535 -3535 -3538 0
-3547 3535 0
-3547 3535 0
-3547 3538 0
3548 -3531 -3534 -3537 0
-3548 3531 0
-3548 3534 0
-3548 3537 0
3549 -3537 -3537 -3531 0
-3549 3537 0
-3549 3537 0
-3549 3531 0
3550 -3534 -3537 -3535 0
-3550 3534 0
-3550 3537 0
-3550 3535 0
3551 -3542 -3549 -3547 0
-3551 3542 0
-3551 3549 0
-3551 3547 0
3552 -3550 -3541 -3548 0
-3552 3550 0
-3552 3541 0
-3552 3548 0
3553 -3542 -3545 -3549 0
-3553 3542 0
-3553 3545 0
-3553 3549 0
3554 -3545 -3550 -3544 0
-3554 3545 0
-3554 3550 0
-3554 3544 0
3555 -3549 -3546 -3542 0
-3555 3549 0
-3555 3546 0
-3555 3542 0
3556 -3544 -3543 -3548 0
-3556 3544 0
-3556 3543 0
-3556 3548 0
3557 -3546 -3549 -3545 0
-3557 3546 0
-3557 3549 0
-3557 3545 0
3558 -3543 -3550 -3541 0
-3558 3543 0
-3558 3550 0
-3558 3541 0
3559 -3549 -3546 -3549 0
-3559 3549 0
-3559 3546 0
-3559 3549 0
3560 -3549 -3550 -3543 0
-3560 3549 0
-3560 3550 0
-3560 3543 0
3561 -3552 -3555 -3560 0
-3561 3552 0
-3561 3555 0
-3561 3560 0
3562 -3557 -3556 -3555 0
-3562 3557 0
-3562 3556 0
-3562 3555 0
3563 -3557 -3558 -3553 0
-3563 3557 0
-3563 3558 0
-3563 3553 0
3564 -3553 -3556 -3551 0
-3564 3553 0
-3564 3556 0
-3564 3551 0
3565 -3551 -3559 -3551 0
-3565 3551 0
-3565 3559 0
-3565 3551 0
3566 -3553 -3553 -3559 0
-3566 3553 0
-3566 3553 0
-3566 3559 0
3567 -3552 -3553 -3551 0
-3567 3552 0
-3567 3553 0
-3567 3551 0
3568 -3556 -3555 -3555 0
-3568 3556 0
-3568 3555 0
-3568 3555 0
3569 -3552 -3556 -3554 0
-3569 3552 0
-3569 3556 0
-3569 3554 0
3570 -3551 -3551 -3553 0
-3570 3551 0
-3570 3551 0
-3570 3553 0
3571 -3563 -3566 -3570 0
-3571 3563 0
-3571 3566 0
-3571 3570 0
3572 -3564 -3566 -3568 0
-3572 3564 0
-3572 3566 0
-3572 3568 0
3573 -3569 -3561 -3565 0
-3573 3569 0
-3573 3561 0
-3573 3565 0
3574 -3565 -3565 -3570 0
-3574 3565 0
-3574 3565 0
-3574 3570 0
3575 -3563 -3564 -3568 0
-3575 3563 0
-3575 3564 0
-3575 3568 0
3576 -3562 -3562 -3564 0
-3576 3562 0
-3576 3562 0
-3576 3564 0
3577 -3568 -3565 -3564 0
-3577 3568 0
-3577 3565 0
-3577 3564 0
3578 -3562 -3564 -3564 0
-3578 3562 0
-3578 3564 0
-3578 3564 0
3579 -3565 -3566 -3562 0
-3579 3565 0
-3579 3566 0
-3579 3562 0
3580 -3570 -3570 -3568 0
-3580 3570 0
-3580 3570 0
-3580 3568 0
3581 -3571 -3576 -3578 0
-3581 3571 0
-3581 3576 0
-3581 3578 0
3582 -3576 -3578 -3574 0
-3582 3576 0
-3582 3578 0
-3582 3574 0
3583 -3576 -3572 -3577 0
-3583 3576 0
-3583 3572 0
-3583 3577 0
3584 -3576 -3575 -3576 0
-3584 3576 0
-3584 3575 0
-3584 3576 0
3585 -3573 -3571 -3574 0
-3585 3573 0
-3585 3571 0
-3585 3574 0
3586 -3571 -3572 -3571 0
-3586 3571 0
-3586 3572 0
-3586 3571 0
3587 -3576 -3576 -3575 0
-3587 3576 0
-3587 3576 0
-3587 3575 0
3588 -3579 -3579 -3573 0
-3588 3579 0
-3588 3579 0
-3588 3573 0
3589 -3572 -3574 -3573 0
-3589 3572 0
-3589 3574 0
-3589 3573 0
3590 -3571 -3573 -3576 0
-3590 3571 0
-3590 3573 0
-3590 3576 0
3591 -3586 -3587 -3585 0
-3591 3586 0
-3591 3587 0
-3591 3585 0
3592 -3582 -3590 -3584 0
-3592 3582 0
-3592 3590 0
-3592 3584 0
3593 -3582 -3581 -3583 0
-3593 3582 0
-3593 3581 0
-3593 3583 0
3594 -3586 -3586 -3589 0
-3594 3586 0
-3594 3586 0
-3594 3589 0
3595 -3582 -3586 -3590 0
-3595 3582 0
-3595 3586 0
-3595 3590 0
3596 -3582 -3583 -3585 0
-3596 3582 0
-3596 3583 0
-3596 3585 0
3597 -3588 -3590 -3582 0
-3597 3588 0
-3597 3590 0
-3597 3582 0
3598 -3583 -3586 -3585 0
-3598 3583 0
-3598 3586 0
-3598 3585 0
3599 -3586 -3587 -3583 0
-3599 3586 0
-3599 3587 0
-3599 3583 0
3600 -3589 -3590 -3585 0
-3600 3589 0
-3600 3590 0
-3600 3585 0
3601 -3594 -3592 -3597 0
-3601 3594 0
-3601 3592 0
-3601 3597 0
3602 -3599 -3593 -3597 0
-3602 3599 0
-3602 3593 0
-3602 3597 0
3603 -3598 -3599 -3597 0
-3603 3598 0
-3603 3599 0
-3603 3597 0
3604 -3594 -3600 -3598 0
-3604 3594 0
-3604 3600 0
-3604 3598 0
3605 -3598 -3594 -3594 0
-3605 3598 0
-3605 3594 0
-3605 3594 0
3606 -3599 -3595 -3598 0
-3606 3599 0
-3606 3595 0
-3606 3598 0
3607 -3595 -3600 -3600 0
-3607 3595 0
-3607 3600 0
-3607 3600 0
3608 -3599 -3598 -3591 0
-3608 3599 0
-3608 3598 0
-3608 3591 0
3609 -3596 -3591 -3594 0
-3609 3596 0
-3609 3591 0
-3609 3594 0
3610 -3597 -3591 -3595 0
-3610 3597 0
-3610 3591 0
-3610 3595 0
3611 -3606 -3607 -3606 0
-3611 3606 0
-3611 3607 0
-3611 3606 0
3612 -3604 -3606 -3601 0
-3612 3604 0
-3612 3606 0
-3612 3601 0
3613 -3606 -3606 -3607 0
-3613 3606 0
-3613 3606 0
-3613 3607 0
3614 -3609 -3602 -3604 0
-3614 3609 0
-3614 3602 0
-3614 3604 0
3615 -3608 -3609 -3605 0
-3615 3608 0
-3615 3609 0
-3615 3605 0
3616 -3602 -3606 -3601 0
-3616 3602 0
-3616 3606 0
-3616 3601 0
3617 -3602 -3608 -3603 0
-3617 3602 0
-3617 3608 0
-3617 3603 0
3618 -3605 -3603 -3605 0
-3618 3605 0
-3618 3603 0
-3618 3605 0
3619 -3608 -3603 -3605 0
-3619 3608 0
-3619 3603 0
-3619 3605 0
3620 -3601 -3610 -3603 0
-3620 3601 0
-3620 3610 0
-3620 3603 0
3621 -3614 -3620 -3617 0
-3621 3614 0
-3621 3620 0
-3621 3617 0
3622 -3611 -3614 -3618 0
-3622 3611 0
-3622 3614 0
-3622 3618 0
3623 -3611 -3617 -3611 0
-3623 3611 0
-3623 3617 0
-3623 3611 0
3624 -3619 -3619 -3620 0
-3624 3619 0
-3624 3619 0
-3624 3620 0
3625 -3619 -3619 -3620 0
-3625 3619 0
-3625 3619 0
-3625 3620 0
3626 -3618 -3616 -3618 0
-3626 3618 0
-3626 3616 0
-3626 3618 0
3627 -3613 -3611 -3617 0
-3627 3613 0
-3627 3611 0
-3627 3617 0
3628 -3613 -3613 -3611 0
-3628 3613 0
-3628 3613 0
-3628 3611 0
3629 -3616 -3613 -3614 0
-3629 3616 0
-3629 3613 0
-3629 3614 0
3630 -3618 -3614 -3611 0
-3630 3618 0
-3630 3614 0
-3630 3611 0
3631 -3629 -3629 -3622 0
-3631 3629 0
-3631 3629 0
-3631 3622 0
3632 -3623 -3628 -3627 0
-3632 3623 0
-3632 3628 0
-3632 3627 0
3633 -3626 -3626 -3621 0
-3633 3626 0
-3633 3626 0
-3633 3621 0
3634 -3622 -3626 -3622 0
-3634 3622 0
-3634 3626 0
-3634 3622 0
3635 -3625 -3625 -3623 0
-3635 3625 0
-3635 3625 0
-3635 3623 0
3636 -3627 -3630 -3624 0
-3636 3627 0
-3636 3630 0
-3636 3624 0
3637 -3621 -3621 -3623 0
-3637 3621 0
-3637 3621 0
-3637 3623 0
3638 -3624 -3628 -3621 0
-3638 3624 0
-3638 3628 0
-3638 3621 0
3639 -3629 -3625 -3625 0
-3639 3629 0
-3639 3625 0
-3639 3625 0
3640 -3621 -3625 -3621 0
-3640 3621 0
-3640 3625 0
-3640 3621 0
3641 -3640 -3631 -3637 0
-3641 3640 0
-3641 3631 0
-3641 3637 0
3642 -3634 -3638 -3640 0
-3642 3634 0
-3642 3638 0
-3642 3640 0
3643 -3631 -3635 -3637 0
-3643 3631 0
-3643 3635 0
-3643 3637 0
3644 -3631 -3636 -3640 0
-3644 3631 0
-3644 3636 0
-3644 3640 0
3645 -3632 -3638 -3633 0
-3645 3632 0
-3645 3638 0
-3645 3633 0
3646 -3638 -3632 -3632 0
-3646 3638 0
-3646 3632 0
-3646 3632 0
3647 -3632 -3632 -3637 0
-3647 3632 0
-3647 3632 0
-3647 3637 0
3648 -3636 -3639 -3633 0
-3648 3636 0
-3648 3639 0
-3648 3633 0
3649 -3636 -3635 -3633 0
-3649 3636 0
-3649 3635 0
-3649 3633 0
3650 -3637 -3631 -3637 0
-3650 3637 0
-3650 3631 0
-3650 3637 0
3651 -3641 -3650 -3644 0
-3651 3641 0
-3651 3650 0
-3651 3644 0
3652 -3645 -3650 -3650 0
-3652 3645 0
-3652 3650 0
-3652 3650 0
3653 -3642 -3647 -3642 0
-3653 3642 0
-3653 3647 0
-3653 3642 0
3654 -3644 -3648 -3641 0
-3654 3644 0
-3654 3648 0
-3654 3641 0
3655 -3646 -3644 -3644 0
-3655 3646 0
-3655 3644 0
-3655 3644 0
3656 -3644 -3650 -3649 0
-3656 3644 0
-3656 3650 0
-3656 3649 0
3657 -3649 -3643 -3650 0
-3657 3649 0
-3657 3643 0
-3657 3650 0
3658 -3647 -3646 -3648 0
-3658 3647 0
-3658 3646 0
-3658 3648 0
3659 -3644 -3644 -3649 0
-3659 3644 0
-3659 3644 0
-3659 3649 0
3660 -3642 -3646 -3645 0
-3660 3642 0
-3660 3646 0
-3660 3645 0
3661 -3654 -3653 -3654 0
-3661 3654 0
-3661 3653 0
-3661 3654 0
3662 -3659 -3657 -3655 0
-3662 3659 0
-3662 3657 0
-3662 3655 0
3663 -3653 -3655 -3657 0
-3663 3653 0
-3663 3655 0
-3663 3657 0
3664 -3660 -3656 -3656 0
-3664 3660 0
-3664 3656 0
-3664 3656 0
3665 -3654 -3659 -3659 0
-3665 3654 0
-3665 3659 0
-3665 3659 0
3666 -3657 -3653 -3653 0
-3666 3657 0
-3666 3653 0
-3666 3653 0
3667 -3658 -3658 -3653 0
-3667 3658 0
-3667 3658 0
-3667 3653 0
3668 -3654 -3655 -3651 0
-3668 3654 0
-3668 3655 0
-3668 3651 0
3669 -3658 -3660 -3660 0
-3669 3658 0
-3669 3660 0
-3669 3660 0
3670 -3659 -3657 -3658 0
-3670 3659 0
-3670 3657 0
-3670 3658 0
3671 -3669 -3668 -3662 0
-3671 3669 0
-3671 3668 0
-3671 3662 0
3672 -3666 -3670 -3662 0
-3672 3666 0
-3672 3670 0
-3672 3662 0
3673 -3662 -3664 -3661 0
-3673 3662 0
-3673 3664 0
-3673 3661 0
3674 -3666 -3669 -3668 0
-3674 3666 0
-3674 3669 0
-3674 3668 0
3675 -3669 -3667 -3665 0
-3675 3669 0
-3675 3667 0
-3675 3665 0
3676 -3669 -3667 -3661 0
-3676 3669 0
-3676 3667 0
-3676 3661 0
3677 -3669 -3662 -3662 0
-3677 3669 0
-3677 3662 0
-3677 3662 0
3678 -3664 -3669 -3666 0
-3678 3664 0
-3678 3669 0
-3678 3666 0
3679 -3662 -3669 -3670 0
-3679 3662 0
-3679 3669 0
-3679 3670 0
3680 -3666 -3661 -3670 0
-3680 3666 0
-3680 3661 0
-3680 3670 0
3681 -3680 -3677 -3680 0
-3681 3680 0
-3681 3677 0
-3681 3680 0
3682 -3673 -3680 -3676 0
-3682 3673 0
-3682 3680 0
-3682 3676 0
3683 -3677 -3678 -3677 0
-3683 3677 0
-3683 3678 0
-3683 3677 0
3684 -3677 -3676 -3672 0
-3684 3677 0
-3684 3676 0
-3684 3672 0
3685 -3680 -3673 -3676 0
-3685 3680 0
-3685 3673 0
-3685 3676 0
3686 -3680 -3677 -3673 0
-3686 3680 0
-3686 3677 0
-3686 3673 0
3687 -3675 -3671 -3675 0
-3687 3675 0
-3687 3671 0
-3687 3675 0
3688 -3672 -3679 -3678 0
-3688 3672 0
-3688 3679 0
-3688 3678 0
3689 -3676 -3675 -3677 0
-3689 3676 0
-3689 3675 0
-3689 3677 0
3690 -3671 -3676 -3673 0
-3690 3671 0
-3690 3676 0
-3690 3673 0
3691 -3681 -3684 -3682 0
-3691 3681 0
-3691 3684 0
-3691 3682 0
3692 -3684 -3686 -3685 0
-3692 3684 0
-3692 3686 0
-3692 3685 0
3693 -3685 -3682 -3684 0
-3693 3685 0
-3693 3682 0
-3693 3684 0
3694 -3687 -3682 -3690 0
-3694 3687 0
-3694 3682 0
-3694 3690 0
3695 -3684 -3681 -3682 0
-3695 3684 0
-3695 3681 0
-3695 3682 0
3696 -3688 -3685 -3685 0
-3696 3688 0
-3696 3685 0
-3696 3685 0
3697 -3690 -3682 -3681 0
-3697 3690 0
-3697 3682 0
-3697 3681 0
3698 -3689 -3685 -3682 0
-3698 3689 0
-3698 3685 0
-3698 3682 0
3699 -3689 -3681 -3682 0
-3699 3689 0
-3699 3681 0
-3699 3682 0
3700 -3689 -3684 -3689 0
-3700 3689 0
-3700 3684 0
-3700 3689 0
3701 -3691 -3694 -3699 0
-3701 3691 0
-3701 3694 0
-3701 3699 0
3702 -3698 -3693 -3691 0
-3702 3698 0
-3702 3693 0
-3702 3691 0
3703 -3699 -3694 -3697 0
-3703 3699 0
-3703 3694 0
-3703 3697 0
3704 -3694 -3695 -3696 0
-3704 3694 0
-3704 3695 0
-3704 3696 0
3705 -3699 -3699 -3695 0
-3705 3699 0
-3705 3699 0
-3705 3695 0
3706 -3697 -3695 -3700 0
-3706 3697 0
-3706 3695 0
-3706 3700 0
3707 -3699 -3700 -3698 0
-3707 3699 0
-3707 3700 0
-3707 3698 0
3708 -3694 -3694 -3697 0
-3708 3694 0
-3708 3694 0
-3708 3697 0
3709 -3694 -3700 -3696 0
-3709 3694 0
-3709 3700 0
-3709 3696 0
3710 -3691 -3692 -3699 0
-3710 3691 0
-3710 3692 0
-3710 3699 0
3711 -3708 -3708 -3710 0
-3711 3708 0
-3711 3708 0
-3711 3710 0
3712 -3701 -3705 -3703 0
-3712 3701 0
-3712 3705 0
-3712 3703 0
3713 -3702 -3709 -3701 0
-3713 3702 0
-3713 3709 0
-3713 3701 0
3714 -3701 -3702 -3705 0
-3714 3701 0
-3714 3702 0
-3714 3705 0
3715 -3708 -3709 -3704 0
-3715 3708 0
-3715 3709 0
-3715 3704 0
3716 -3708 -3707 -3705 0
-3716 3708 0
-3716 3707 0
-3716 3705 0
3717 -3704 -3709 -3709 0
-3717 3704 0
-3717 3709 0
-3717 3709 0
3718 -3703 -3701 -3704 0
-3718 3703 0
-3718 3701 0
-3718 3704 0
3719 -3710 -3703 -3701 0
-3719 3710 0
-3719 3703 0
-3719 3701 0
3720 -3706 -3704 -3702 0
-3720 3706 0
-3720 3704 0
-3720 3702 0
3721 -3712 -3716 -3711 0
-3721 3712 0
-3721 3716 0
-3721 3711 0
3722 -3716 -3711 -3714 0
-3722 3716 0
-3722 3711 0
-3722 3714 0
3723 -3718 -3717 -3711 0
-3723 3718 0
-3723 3717 0
-3723 3711 0
3724 -3713 -3718 -3714 0
-3724 3713 0
-3724 3718 0
-3724 3714 0
3725 -3720 -3716 -3720 0
-3725 3720 0
-3725 3716 0
-3725 3720 0
3726 -3713 -3717 -3712 0
-3726 3713 0
-3726 3717 0
-3726 3712 0
3727 -3711 -3715 -3717 0
-3727 3711 0
-3727 3715 0
-3727 3717 0
3728 -3714 -3720 -3714 0
-3728 3714 0
-3728 3720 0
-3728 3714 0
3729 -3711 -3714 -3714 0
-3729 3711 0
-3729 3714 0
-3729 3714 0
3730 -3717 -3713 -3720 0
-3730 3717 0
-3730 3713 0
-3730 3720 0
3731 -3721 -3721 -3726 0
-3731 3721 0
-3731 3721 0
-3731 3726 0
3732 -3729 -3722 -3725 0
-3732 3729 0
-3732 3722 0
-3732 3725 0
3733 -3727 -3728 -3727 0
-3733 3727 0
-3733 3728 0
-3733 3727 0
3734 -3729 -3730 -3726 0
-3734 3729 0
-3734 3730 0
-3734 3726 0
3735 -3729 -3727 -3727 0
-3735 3729 0
-3735 3727 0
-3735 3727 0
3736 -3724 -3724 -3727 0
-3736 3724 0
-3736 3724 0
-3736 3727 0
3737 -3728 -3722 -3730 0
-3737 3728 0
-3737 3722 0
-3737 3730 0
3738 -3727 -3721 -3723 0
-3738 3727 0
-3738 3721 0
-3738 3723 0
3739 -3730 -3728 -3721 0
-3739 3730 0
-3739 3728 0
-3739 3721 0
3740 -3729 -3725 -3724 0
-3740 3729 0
-3740 3725 0
-3740 3724 0
3741 -3736 -3736 -3731 0
-3741 3736 0
-3741 3736 0
-3741 3731 0
3742 -3738 -3736 -3738 0
-3742 3738 0
-3742 3736 0
-3742 3738 0
3743 -3736 -3733 -3737 0
-3743 3736 0
-3743 3733 0
-3743 3737 0
3744 -3737 -3738 -3740 0
-3744 3737 0
-3744 3738 0
-3744 3740 0
3745 -3735 -3732 -3732 0
-3745 3735 0
-3745 3732 0
-3745 3732 0
3746 -3740 -3734 -3736 0
-3746 3740 0
-3746 3734 0
-3746 3736 0
3747 -3736 -3735 -3738 0
-3747 3736 0
-3747 3735 0
-3747 3738 0
3748 -3740 -3736 -3736 0
-3748 3740 0
-3748 3736 0
-3748 3736 0
3749 -3736 -3740 -3731 0
-3749 3736 0
-3749 3740 0
-3749 3731 0
3750 -3731 -3736 -3732 0
-3750 3731 0
-3750 3736 0
-3750 3732 0
3751 -3741 -3746 -3741 0
-3751 3741 0
-3751 3746 0
-3751 3741 0
3752 -3750 -3743 -3749 0
-3752 3750 0
-3752 3743 0
-3752 3749 0
3753 -3743 -3750 -3747 0
-3753 3743 0
-3753 3750 0
-3753 3747 0
3754 -3746 -3748 -3743 0
-3754 3746 0
-3754 3748 0
-3754 3743 0
3755 -3750 -3741 -3746 0
-3755 3750 0
-3755 3741 0
-3755 3746 0
3756 -3741 -3741 -3747 0
-3756 3741 0
-3756 3741 0
-3756 3747 0
3757 -3741 -3744 -3744 0
-3757 3741 0
-3757 3744 0
-3757 3744 0
3758 -3746 -3741 -3744 0
-3758 3746 0
-3758 3741 0
-3758 3744 0
3759 -3742 -3750 -3746 0
-3759 3742 0
-3759 3750 0
-3759 3746 0
3760 -3750 -3741 -3750 0
-3760 3750 0
-3760 3741 0
-3760 3750 0
3761 -3755 -3760 -3751 0
-3761 3755 0
-3761 3760 0
-3761 3751 0
3762 -3756 -3757 -3753 0
-3762 3756 0
-3762 3757 0
-3762 3753 0
3763 -3755 -3760 -3757 0
-3763 3755 0
-3763 3760 0
-3763 3757 0
3764 -3751 -3760 -3759 0
-3764 3751 0
-3764 3760 0
-3764 3759 0
3765 -3757 -3757 -3754 0
-3765 3757 0
-3765 3757 0
-3765 3754 0
3766 -3753 -3758 -3758 0
-3766 3753 0
-3766 3758 0
-3766 3758 0
3767 -3752 -3751 -3759 0
-3767 3752 0
-3767 3751 0
-3767 3759 0
3768 -3755 -3751 -3756 0
-3768 3755 0
-3768 3751 0
-3768 3756 0
3769 -3759 -3756 -3752 0
-3769 3759 0
-3769 3756 0
-3769 3752 0
3770 -3755 -3757 -3757 0
-3770 3755 0
-3770 3757 0
-3770 3757 0
3771 -3763 -3762 -3769 0
-3771 3763 0
-3771 3762 0
-3771 3769 0
3772 -3770 -3763 -3765 0
-3772 3770 0
-3772 3763 0
-3772 3765 0
3773 -3762 -3763 -3761 0
-3773 3762 0
-3773 3763 0
-3773 3761 0
3774 -3765 -3765 -3761 0
-3774 3765 0
-3774 3765 0
-3774 3761 0
3775 -3762 -3764 -3770 0
-3775 3762 0
-3775 3764 0
-3775 3770 0
3776 -3767 -3762 -3769 0
-3776 3767 0
-3776 3762 0
-3776 3769 0
3777 -3767 -3767 -3767 0
-3777 3767 0
-3777 3767 0
-3777 3767 0
3778 -3767 -3762 -3761 0
-3778 3767 0
-3778 3762 0
-3778 3761 0
3779 -3765 -3766 -3768 0
-3779 3765 0
-3779 3766 0
-3779 3768 0
3780 -3765 -3769 -3762 0
-3780 3765 0
-3780 3769 0
-3780 3762 0
3781 -3775 -3774 -3772 0
-3781 3775 0
-3781 3774 0
-3781 3772 0
3782 -3776 -3779 -3772 0
-3782 3776 0
-3782 3779 0
-3782 3772 0
3783 -3779 -3779 -3772 0
-3783 3779 0
-3783 3779 0
-3783 3772 0
3784 -3776 -3775 -3776 0
-3784 3776 0
-3784 3775 0
-3784 3776 0
3785 -3780 -3772 -3777 0
-3785 3780 0
-3785 3772 0
-3785 3777 0
3786 -3773 -3780 -3776 0
-3786 3773 0
-3786 3780 0
-3786 3776 0
3787 -3774 -3777 -3775 0
-3787 3774 0
-3787 3777 0
-3787 3775 0
3788 -3772 -3778 -3773 0
-3788 3772 0
-3788 3778 0
-3788 3773 0
3789 -3772 -3779 -3780 0
-3789 3772 0
-3789 3779 0
-3789 3780 0
3790 -3773 -3774 -3774 0
-3790 3773 0
-3790 3774 0
-3790 3774 0
3791 -3790 -3790 -3786 0
-3791 3790 0
-3791 3790 0
-3791 3786 0
3792 -3781 -3790 -3790 0
-3792 3781 0
-3792 3790 0
-3792 3790 0
3793 -3790 -3789 -3782 0
-3793 3790 0
-3793 3789 0
-3793 3782 0
3794 -3786 -3781 -3790 0
-3794 3786 0
-3794 3781 0
-3794 3790 0
3795 -3788 -3785 -3785 0
-3795 3788 0
-3795 3785 0
-3795 3785 0
3796 -3783 -3781 -3787 0
-3796 3783 0
-3796 3781 0
-3796 3787 0
3797 -3781 -3781 -3789 0
-3797 3781 0
-3797 3781 0
-3797 3789 0
3798 -3790 -3785 -3788 0
-3798 3790 0
-3798 3785 0
-3798 3788 0
3799 -3788 -3789 -3790 0
-3799 3788 0
-3799 3789 0
-3799 3790 0
3800 -3784 -3785 -3787 0
-3800 3784 0
-3800 3785 0
-3800 3787 0
3801 -3797 -3800 -3791 0
-3801 3797 0
-3801 3800 0
-3801 3791 0
3802 -3791 -3796 -3798 0
-3802 3791 0
-3802 3796 0
-3802 3798 0
3803 -3799 -3795 -3794 0
-3803 3799 0
-3803 3795 0
-3803 3794 0
3804 -3797 -3800 -3800 0
-3804 3797 0
-3804 3800 0
-3804 3800 0
3805 -3799 -3792 -3797 0
-3805 3799 0
-3805 3792 0
-3805 3797 0
3806 -3797 -3797 -3793 0
-3806 3797 0
-3806 3797 0
-3806 3793 0
3807 -3797 -3798 -3800 0
-3807 3797 0
-3807 3798 0
-3807 3800 0
3808 -3791 -3799 -3800 0
-3808 3791 0
-3808 3799 0
-3808 3800 0
3809 -3793 -3791 -3795 0
-3809 3793 0
-3809 3791 0
-3809 3795 0
3810 -3800 -3795 -3799 0
-3810 3800 0
-3810 3795 0
-3810 3799 0
3811 -3806 -3810 -3805 0
-3811 3806 0
-3811 3810 0
-3811 3805 0
3812 -3803 -3807 -3810 0
-3812 3803 0
-3812 3807 0
-3812 3810 0
3813 -3806 -3810 -3802 0
-3813 3806 0
-3813 3810 0
-3813 3802 0
3814 -3801 -3809 -3804 0
-3814 3801 0
-3814 3809 0
-3814 3804 0
3815 -3809 -3807 -3807 0
-3815 3809 0
-3815 3807 0
-3815 3807 0
3816 -3801 -3801 -3804 0
-3816 3801 0
-3816 3801 0
-3816 3804 0
3817 -3807 -3803 -3804 0
-3817 3807 0
-3817 3803 0
-3817 3804 0
3818 -3803 -3801 -3810 0
-3818 3803 0
-3818 3801 0
-3818 3810 0
3819 -3802 -3801 -3806 0
-3819 3802 0
-3819 3801 0
-3819 3806 0
3820 -3807 -3807 -3808 0
-3820 3807 0
-3820 3807 0
-3820 3808 0
3821 -3813 -3811 -3813 0
-3821 3813 0
-3821 3811 0
-3821 3813 0
3822 -3813 -3818 -3814 0
-3822 3813 0
-3822 3818 0
-3822 3814 0
3823 -3817 -3816 -3816 0
-3823 3817 0
-3823 3816 0
-3823 3816 0
3824 -3814 -3819 -3818 0
-3824 3814 0
-3824 3819 0
-3824 3818 0
3825 -3817 -3811 -3814 0
-3825 3817 0
-3825 3811 0
-3825 3814 0
3826 -3815 -3814 -3820 0
-3826 3815 0
-3826 3814 0
-3826 3820 0
3827 -3817 -3820 -3817 0
-3827 3817 0
-3827 3820 0
-3827 3817 0
3828 -3814 -3814 -3818 0
-3828 3814 0
-3828 3814 0
-3828 3818 0
3829 -3819 -3817 -3814 0
-3829 3819 0
-3829 3817 0
-3829 3814 0
3830 -3812 -3815 -3816 0
-3830 3812 0
-3830 3815 0
-3830 3816 0
3831 -3823 -3826 -3823 0
-3831 3823 0
-3831 3826 0
-3831 3823 0
3832 -3829 -3829 -3825 0
-3832 3829 0
-3832 3829 0
-3832 3825 0
3833 -3830 -3829 -3822 0
-3833 3830 0
-3833 3829 0
-3833 3822 0
3834 -3825 -3828 -3828 0
-3834 3825 0
-3834 3828 0
-3834 3828 0
3835 -3825 -3823 -3827 0
-3835 3825 0
-3835 3823 0
-3835 3827 0
3836 -3823 -3827 -3822 0
-3836 3823 0
-3836 3827 0
-3836 3822 0
3837 -3828 -3824 -3828 0
-3837 3828 0
-3837 3824 0
-3837 3828 0
3838 -3828 -3823 -3823 0
-3838 3828 0
-3838 3823 0
-3838 3823 0
3839 -3821 -3823 -3826 0
-3839 3821 0
-3839 3823 0
-3839 3826 0
3840 -3830 -3821 -3823 0
-3840 3830 0
-3840 3821 0
-3840 3823 0
3841 -3837 -3838 -3831 0
-3841 3837 0
-3841 3838 0
-3841 3831 0
3842 -3838 -3835 -3832 0
-3842 3838 0
-3842 3835 0
-3842 3832 0
3843 -3838 -3831 -3838 0
-3843 3838 0
-3843 3831 0
-3843 3838 0
3844 -3831 -3832 -3838 0
-3844 3831 0
-3844 3832 0
-3844 3838 0
3845 -3840 -3833 -3832 0
-3845 3840 0
-3845 3833 0
-3845 3832 0
3846 -3837 -3838 -3837 0
-3846 3837 0
-3846 3838 0
-3846 3837 0
3847 -3838 -3833 -3834 0
-3847 3838 0
-3847 3833 0
-3847 3834 0
3848 -3839 -3837 -3832 0
-3848 3839 0
-3848 3837 0
-3848 3832 0
3849 -3832 -3837 -3832 0
-3849 3832 0
-3849 3837 0
-3849 3832 0
3850 -3831 -3835 -3837 0
-3850 3831 0
-3850 3835 0
-3850 3837 0
3851 -3850 -3846 -3846 0
-3851 3850 0
-3851 3846 0
-3851 3846 0
3852 -3848 -3844 -3844 0
-3852 3848 0
-3852 3844 0
-3852 3844 0
3853 -3846 -3849 -3847 0
-3853 3846 0
-3853 3849 0
-3853 3847 0
3854 -3847 -3841 -3842 0
-3854 3847 0
-3854 3841 0
-3854 3842 0
3855 -3846 -3841 -3842 0
-3855 3846 0
-3855 3841 0
-3855 3842 0
3856 -3847 -3846 -3847 0
-3856 3847 0
-3856 3846 0
-3856 3847 0
3857 -3845 -3841 -3842 0
-3857 3845 0
-3857 3841 0
-3857 3842 0
3858 -3848 -3849 -3844 0
-3858 3848 0
-3858 3849 0
-3858 3844 0
3859 -3841 -3843 -3844 0
-3859 3841 0
-3859 3843 0
-3859 3844 0
3860 -3847 -3842 -3841 0
-3860 3847 0
-3860 3842 0
-3860 3841 0
3861 -3852 -3853 -3860 0
-3861 3852 0
-3861 3853 0
-3861 3860 0
3862 -3852 -3855 -3855 0
-3862 3852 0
-3862 3855 0
-3862 3855 0
3863 -3856 -3855 -3856 0
-3863 3856 0
-3863 3855 0
-3863 3856 0
3864 -3860 -3858 -3859 0
-3864 3860 0
-3864 3858 0
-3864 3859 0
3865 -3858 -3851 -3855 0
-3865 3858 0
-3865 3851 0
-3865 3855 0
3866 -3852 -3856 -3855 0
-3866 3852 0
-3866 3856 0
-3866 3855 0
3867 -3859 -3858 -3854 0
-3867 3859 0
-3867 3858 0
-3867 3854 0
3868 -3855 -3859 -3859 0
-3868 3855 0
-3868 3859 0
-3868 3859 0
3869 -3854 -3858 -3855 0
-3869 3854 0
-3869 3858 0
-3869 3855 0
3870 -3856 -3860 -3856 0
-3870 3856 0
-3870 3860 0
-3870 3856 0
3871 -3861 -3870 -3865 0
-3871 3861 0
-3871 3870 0
-3871 3865 0
3872 -3861 -3862 -3861 0
-3872 3861 0
-3872 3862 0
-3872 3861 0
3873 -3866 -3864 -3867 0
-3873 3866 0
-3873 3864 0
-3873 3867 0
3874 -3869 -3865 -3863 0
-3874 3869 0
-3874 3865 0
-3874 3863 0
3875 -3861 -3870 -3869 0
-3875 3861 0
-3875 3870 0
-3875 3869 0
3876 -3870 -3868 -3869 0
-3876 3870 0
-3876 3868 0
-3876 3869 0
3877 -3862 -3867 -3864 0
-3877 3862 0
-3877 3867 0
-3877 3864 0
3878 -3865 -3869 -3861 0
-3878 3865 0
-3878 3869 0
-3878 3861 0
3879 -3863 -3865 -3861 0
-3879 3863 0
-3879 3865 0
-3879 3861 0
3880 -3867 -3870 -3867 0
-3880 3867 0
-3880 3870 0
-3880 3867 0
3881 -3872 -3875 -3874 0
-3881 3872 0
-3881 3875 0
-3881 3874 0
3882 -3872 -3876 -3877 0
-3882 3872 0
-3882 3876 0
-3882 3877 0
3883 -3872 -3873 -3875 0
-3883 3872 0
-3883 3873 0
-3883 3875 0
3884 -3874 -3875 -3875 0
-3884 3874 0
-3884 3875 0
-3884 3875 0
3885 -3878 -3880 -3878 0
-3885 3878 0
-3885 3880 0
-3885 3878 0
3886 -3874 -3880 -3876 0
-3886 3874 0
-3886 3880 0
-3886 3876 0
3887 -3876 -3877 -3877 0
-3887 3876 0
-3887 3877 0
-3887 3877 0
3888 -3879 -3877 -3872 0
-3888 3879 0
-3888 3877 0
-3888 3872 0
3889 -3873 -3877 -3880 0
-3889 3873 0
-3889 3877 0
-3889 3880 0
3890 -3880 -3871 -3880 0
-3890 3880 0
-3890 3871 0
-3890 3880 0
3891 -3885 -3889 -3885 0
-3891 3885 0
-3891 3889 0
-3891 3885 0
3892 -3889 -3887 -3889 0
-3892 3889 0
-3892 3887 0
-3892 3889 0
3893 -3883 -3886 -3882 0
-3893 3883 0
-3893 3886 0
-3893 3882 0
3894 -3882 -3888 -3889 0
-3894 3882 0
-3894 3888 0
-3894 3889 0
3895 -3888 -3890 -3886 0
-3895 3888 0
-3895 3890 0
-3895 3886 0
3896 -3887 -3889 -3884 0
-3896 3887 0
-3896 3889 0
-3896 3884 0
3897 -3884 -3890 -3881 0
-3897 3884 0
-3897 3890 0
-3897 3881 0
3898 -3881 -3888 -3882 0
-3898 3881 0
-3898 3888 0
-3898 3882 0
3899 -3883 -3884 -3889 0
-3899 3883 0
-3899 3884 0
-3899 3889 0
3900 -3885 -3882 -3886 0
-3900 3885 0
-3900 3882 0
-3900 3886 0
3901 -3895 -3897 -3898 0
-3901 3895 0
-3901 3897 0
-3901 3898 0
3902 -3896 -3895 -3895 0
-3902 3896 0
-3902 3895 0
-3902 3895 0
3903 -3899 -3899 -3898 0
-3903 3899 0
-3903 3899 0
-3903 3898 0
3904 -3893 -3900 -3892 0
-3904 3893 0
-3904 3900 0
-3904 3892 0
3905 -3896 -3895 -3892 0
-3905 3896 0
-3905 3895 0
-3905 3892 0
3906 -3893 -3898 -3897 0
-3906 3893 0
-3906 3898 0
-3906 3897 0
3907 -3896 -3893 -3894 0
-3907 3896 0
-3907 3893 0
-3907 3894 0
3908 -3897 -3894 -3894 0
-3908 3897 0
-3908 3894 0
-3908 3894 0
3909 -3900 -3897 -3896 0
-3909 3900 0
-3909 3897 0
-3909 3896 0
3910 -3891 -3899 -3896 0
-3910 3891 0
-3910 3899 0
-3910 3896 0
3911 -3901 -3903 -3903 0
-3911 3901 0
-3911 3903 0
-3911 3903 0
3912 -3905 -3902 -3906 0
-3912 3905 0
-3912 3902 0
-3912 3906 0
3913 -3905 -3909 -3904 0
-3913 3905 0
-3913 3909 0
-3913 3904 0
3914 -3908 -3902 -3910 0
-3914 3908 0
-3914 3902 0
-3914 3910 0
3915 -3910 -3908 -3909 0
-3915 3910 0
-3915 3908 0
-3915 3909 0
3916 -3906 -3907 -3904 0
-3916 3906 0
-3916 3907 0
-3916 3904 0
3917 -3903 -3901 -3901 0
-3917 3903 0
-3917 3901 0
-3917 3901 0
3918 -3903 -3904 -3907 0
-3918 3903 0
-3918 3904 0
-3918 3907 0
3919 -3906 -3909 -3902 0
-3919 3906 0
-3919 3909 0
-3919 3902 0
3920 -3901 -3902 -3902 0
-3920 3901 0
-3920 3902 0
-3920 3902 0
3921 -3917 -3913 -3911 0
-3921 3917 0
-3921 3913 0
-3921 3911 0
3922 -3911 -3920 -3918 0
-3922 3911 0
-3922 3920 0
-3922 3918 0
3923 -3914 -3914 -3919 0
-3923 3914 0
-3923 3914 0
-3923 3919 0
3924 -3911 -3919 -3915 0
-3924 3911 0
-3924 3919 0
-3924 3915 0
3925 -3914 -3914 -3915 0
-3925 3914 0
-3925 3914 0
-3925 3915 0
3926 -3914 -3914 -3917 0
-3926 3914 0
-3926 3914 0
-3926 3917 0
3927 -3912 -3918 -3912 0
-3927 3912 0
-3927 3918 0
-3927 3912 0
3928 -3913 -3918 -3911 0
-3928 3913 0
-3928 3918 0
-3928 3911 0
3929 -3919 -3914 -3916 0
-3929 3919 0
-3929 3914 0
-3929 3916 0
3930 -3913 -3912 -3912 0
-3930 3913 0
-3930 3912 0
-3930 3912 0
3931 -3922 -3921 -3927 0
-3931 3922 0
-3931 3921 0
-3931 3927 0
3932 -3925 -3925 -3930 0
-3932 3925 0
-3932 3925 0
-3932 3930 0
3933 -3925 -3925 -3929 0
-3933 3925 0
-3933 3925 0
-3933 3929 0
3934 -3929 -3921 -3925 0
-3934 3929 0
-3934 3921 0
-3934 3925 0
3935 -3922 -3926 -3927 0
-3935 3922 0
-3935 3926 0
-3935 3927 0
3936 -3924 -3928 -3930 0
-3936 3924 0
-3936 3928 0
-3936 3930 0
3937 -3924 -3924 -3929 0
-3937 3924 0
-3937 3924 0
-3937 3929 0
3938 -3924 -3928 -3928 0
-3938 3924 0
-3938 3928 0
-3938 3928 0
3939 -3927 -3923 -3930 0
-3939 3927 0
-3939 3923 0
-3939 3930 0
3940 -3930 -3930 -3926 0
-3940 3930 0
-3940 3930 0
-3940 3926 0
3941 -3940 -3938 -3938 0
-3941 3940 0
-3941 3938 0
-3941 3938 0
3942 -3932 -3934 -3936 0
-3942 3932 0
-3942 3934 0
-3942 3936 0
3943 -3940 -3934 -3936 0
-3943 3940 0
-3943 3934 0
-3943 3936 0
3944 -3933 -3931 -3932 0
-3944 3933 0
-3944 3931 0
-3944 3932 0
3945 -3934 -3937 -3939 0
-3945 3934 0
-3945 3937 0
-3945 3939 0
3946 -3931 -3937 -3932 0
-3946 3931 0
-3946 3937 0
-3946 3932 0
3947 -3938 -3934 -3931 0
-3947 3938 0
-3947 3934 0
-3947 3931 0
3948 -3939 -3940 -3933 0
-3948 3939 0
-3948 3940 0
-3948 3933 0
3949 -3932 -3934 -3932 0
-3949 3932 0
-3949 3934 0
-3949 3932 0
3950 -3935 -3937 -3931 0
-3950 3935 0
-3950 3937 0
-3950 3931 0
3951 -3944 -3943 -3949 0
-3951 3944 0
-3951 3943 0
-3951 3949 0
3952 -3949 -3946 -3945 0
-3952 3949 0
-3952 3946 0
-3952 3945 0
3953 -3947 -3943 -3945 0
-3953 3947 0
-3953 3943 0
-3953 3945 0
3954 -3941 -3945 -3947 0
-3954 3941 0
-3954 3945 0
-3954 3947 0
3955 -3942 -3950 -3946 0
-3955 3942 0
-3955 3950 0
-3955 3946 0
3956 -3944 -3949 -3947 0
-3956 3944 0
-3956 3949 0
-3956 3947 0
3957 -3950 -3946 -3941 0
-3957 3950 0
-3957 3946 0
-3957 3941 0
3958 -3941 -3950 -3945 0
-3958 3941 0
-3958 3950 0
-3958 3945 0
3959 -3950 -3947 -3947 0
-3959 3950 0
-3959 3947 0
-3959 3947 0
3960 -3945 -3943 -3945 0
-3960 3945 0
-3960 3943 0
-3960 3945 0
3961 -3951 -3960 -3959 0
-3961 3951 0
-3961 3960 0
-3961 3959 0
3962 -3952 -3960 -3954 0
-3962 3952 0
-3962 3960 0
-3962 3954 0
3963 -3958 -3952 -3958 0
-3963 3958 0
-3963 3952 0
-3963 3958 0
3964 -3951 -3954 -3956 0
-3964 3951 0
-3964 3954 0
-3964 3956 0
3965 -3955 -3955 -3952 0
-3965 3955 0
-3965 3955 0
-3965 3952 0
3966 -3951 -3952 -3952 0
-3966 3951 0
-3966 3952 0
-3966 3952 0
3967 -3958 -3954 -3959 0
-3967 3958 0
-3967 3954 0
-3967 3959 0
3968 -3954 -3954 -3956 0
-3968 3954 0
-3968 3954 0
-3968 3956 0
3969 -3952 -3957 -3960 0
-3969 3952 0
-3969 3957 0
-3969 3960 0
3970 -3956 -3958 -3953 0
-3970 3956 0
-3970 3958 0
-3970 3953 0
3971 -3965 -3969 -3968 0
-3971 3965 0
-3971 3969 0
-3971 3968 0
3972 -3970 -3962 -3966 0
-3972 3970 0
-3972 3962 0
-3972 3966 0
3973 -3963 -3969 -3962 0
-3973 3963 0
-3973 3969 0
-3973 3962 0
3974 -3962 -3961 -3963 0
-3974 3962 0
-3974 3961 0
-3974 3963 0
3975 -3964 -3967 -3963 0
-3975 3964 0
-3975 3967 0
-3975 3963 0
3976 -3961 -3961 -3967 0
-3976 3961 0
-3976 3961 0
-3976 3967 0
3977 -3966 -3968 -3967 0
-3977 3966 0
-3977 3968 0
-3977 3967 0
3978 -3969 -3966 -3961 0
-3978 3969 0
-3978 3966 0
-3978 3961 0
3979 -3968 -3968 -3963 0
-3979 3968 0
-3979 3968 0
-3979 3963 0
3980 -3961 -3969 -3967 0
-3980 3961 0
-3980 3969 0
-3980 3967 0
3981 -3975 -3974 -3972 0
-3981 3975 0
-3981 3974 0
-3981 3972 0
3982 -3980 -3972 -3974 0
-3982 3980 0
-3982 3972 0
-3982 3974 0
3983 -3971 -3974 -3975 0
-3983 3971 0
-3983 3974 0
-3983 3975 0
3984 -3974 -3977 -3971 0
-3984 3974 0
-3984 3977 0
-3984 3971 0
3985 -3973 -3972 -3977 0
-3985 3973 0
-3985 3972 0
-3985 3977 0
3986 -3980 -3971 -3977 0
-3986 3980 0
-3986 3971 0
-3986 3977 0
3987 -3977 -3978 -3974 0
-3987 3977 0
-3987 3978 0
-3987 3974 0
3988 -3979 -3979 -3971 0
-3988 3979 0
-3988 3979 0
-3988 3971 0
3989 -3980 -3974 -3977 0
-3989 3980 0
-3989 3974 0
-3989 3977 0
3990 -3975 -3974 -3975 0
-3990 3975 0
-3990 3974 0
-3990 3975 0
3991 -3989 -3989 -3986 0
-3991 3989 0
-3991 3989 0
-3991 3986 0
3992 -3989 -3986 -3987 0
-3992 3989 0
-3992 3986 0
-3992 3987 0
3993 -3981 -3986 -3983 0
-3993 3981 0
-3993 3986 0
-3993 3983 0
3994 -3988 -3987 -3981 0
-3994 3988 0
-3994 3987 0
-3994 3981 0
3995 -3989 -3989 -3982 0
-3995 3989 0
-3995 3989 0
-3995 3982 0
3996 -3986 -3985 -3981 0
-3996 3986 0
-3996 3985 0
-3996 3981 0
3997 -3984 -3990 -3983 0
-3997 3984 0
-3997 3990 0
-3997 3983 0
3998 -3981 -3982 -3981 0
-3998 3981 0
-3998 3982 0
-3998 3981 0
3999 -3984 -3981 -3981 0
-3999 3984 0
-3999 3981 0
-3999 3981 0
4000 -3989 -3986 -3983 0
-4000 3989 0
-4000 3986 0
-4000 3983 0
4001 -3997 -3995 -3999 0
-4001 3997 0
-4001 3995 0
-4001 3999 0
4002 -3993 -3992 -3996 0
-4002 3993 0
-4002 3992 0
-4002 3996 0
4003 -3991 -3991 -3991 0
-4003 3991 0
-4003 3991 0
-4003 3991 0
4004 -3996 -4000 -3995 0
-4004 3996 0
-4004 4000 0
-4004 3995 0
4005 -3998 -3998 -3999 0
-4005 3998 0
-4005 3998 0
-4005 3999 0
4006 -4000 -3993 -3994 0
-4006 4000 0
-4006 3993 0
-4006 3994 0
4007 -3999 -3997 -3996 0
-4007 3999 0
-4007 3997 0
-4007 3996 0
4008 -3993 -3998 -3991 0
-4008 3993 0
-4008 3998 0
-4008 3991 0
4009 -3994 -3993 -3991 0
-4009 3994 0
-4009 3993 0
-4009 3991 0
4010 -3999 -3995 -3994 0
-4010 3999 0
-4010 3995 0
-4010 3994 0
4011 -4010 -4002 -4004 0
-4011 4010 0
-4011 4002 0
-4011 4004 0
4012 -4006 -4009 -4005 0
-4012 4006 0
-4012 4009 0
-4012 4005 0
4013 -4001 -4006 -4010 0
-4013 4001 0
-4013 4006 0
-4013 4010 0
4014 -4006 -4009 -4001 0
-4014 4006 0
-4014 4009 0
-4014 4001 0
4015 -4006 -4006 -4007 0
-4015 4006 0
-4015 4006 0
-4015 4007 0
4016 -4003 -4009 -4007 0
-4016 4003 0
-4016 4009 0
-4016 4007 0
4017 -4009 -4001 -4003 0
-4017 4009 0
-4017 4001 0
-4017 4003 0
4018 -4008 -4009 -4004 0
-4018 4008 0
-4018 4009 0
-4018 4004 0
4019 -4003 -4010 -4002 0
-4019 4003 0
-4019 4010 0
-4019 4002 0
4020 -4008 -4009 -4003 0
-4020 4008 0
-4020 4009 0
-4020 4003 0
4021 -4016 -4011 -4017 0
-4021 4016 0
-4021 4011 0
-4021 4017 0
4022 -4017 -4018 -4016 0
-4022 4017 0
-4022 4018 0
-4022 4016 0
4023 -4016 -4019 -4020 0
-4023 4016 0
-4023 4019 0
-4023 4020 0
4024 -4013 -4015 -4018 0
-4024 4013 0
-4024 4015 0
-4024 4018 0
4025 -4012 -4015 -4016 0
-4025 4012 0
-4025 4015 0
-4025 4016 0
4026 -4019 -4012 -4018 0
-4026 4019 0
-4026 4012 0
-4026 4018 0
4027 -4017 -4013 -4019 0
-4027 4017 0
-4027 4013 0
-4027 4019 0
4028 -4013 -4013 -4020 0
-4028 4013 0
-4028 4013 0
-4028 4020 0
4029 -4019 -4020 -4019 0
-4029 4019 0
-4029 4020 0
-4029 4019 0
4030 -4019 -4011 -4014 0
-4030 4019 0
-4030 4011 0
-4030 4014 0
4031 -4028 -4028 -4029 0
-4031 4028 0
-4031 4028 0
-4031 4029 0
4032 -4030 -4021 -4026 0
-4032 4030 0
-4032 4021 0
-4032 4026 0
4033 -4023 -4024 -4027 0
-4033 4023 0
-4033 4024 0
-4033 4027 0
4034 -4029 -4028 -4024 0
-4034 4029 0
-4034 4028 0
-4034 4024 0
4035 -4023 -4027 -4029 0
-4035 4023 0
-4035 4027 0
-4035 4029 0
4036 -4029 -4023 -4022 0
-4036 4029 0
-4036 4023 0
-4036 4022 0
4037 -4023 -4028 -4024 0
-4037 4023 0
-4037 4028 0
-4037 4024 0
4038 -4027 -4027 -4028 0
-4038 4027 0
-4038 4027 0
-4038 4028 0
4039 -4025 -4024 -4025 0
-4039 4025 0
-4039 4024 0
-4039 4025 0
4040 -4024 -4030 -4026 0
-4040 4024 0
-4040 4030 0
-4040 4026 0
4041 -4034 -4040 -4036 0
-4041 4034 0
-4041 4040 0
-4041 4036 0
4042 -4031 -4036 -4037 0
-4042 4031 0
-4042 4036 0
-4042 4037 0
4043 -4032 -4033 -4033 0
-4043 4032 0
-4043 4033 0
-4043 4033 0
4044 -4032 -4034 -4037 0
-4044 4032 0
-4044 4034 0
-4044 4037 0
4045 -4040 -4035 -4036 0
-4045 4040 0
-4045 4035 0
-4045 4036 0
4046 -4040 -4038 -4038 0
-4046 4040 0
-4046 4038 0
-4046 4038 0
4047 -4040 -4034 -4033 0
-4047 4040 0
-4047 4034 0
-4047 4033 0
4048 -4034 -4035 -4038 0
-4048 4034 0
-4048 4035 0
-4048 4038 0
4049 -4031 -4040 -4040 0
-4049 4031 0
-4049 4040 0
-4049 4040 0
4050 -4032 -4032 -4035 0
-4050 4032 0
-4050 4032 0
-4050 4035 0
4051 -4042 -4042 -4042 0
-4051 4042 0
-4051 4042 0
-4051 4042 0
4052 -4043 -4046 -4049 0
-4052 4043 0
-4052 4046 0
-4052 4049 0
4053 -4045 -4041 -4050 0
-4053 4045 0
-4053 4041 0
-4053 4050 0
4054 -4044 -4041 -4044 0
-4054 4044 0
-4054 4041 0
-4054 4044 0
4055 -4044 -4050 -4047 0
-4055 4044 0
-4055 4050 0
-4055 4047 0
4056 -4045 -4046 -4047 0
-4056 4045 0
-4056 4046 0
-4056 4047 0
4057 -4045 -4044 -4048 0
-4057 4045 0
-4057 4044 0
-4057 4048 0
4058 -4048 -4045 -4050 0
-4058 4048 0
-4058 4045 0
-4058 4050 0
4059 -4043 -4044 -4041 0
-4059 4043 0
-4059 4044 0
-4059 4041 0
4060 -4050 -4047 -4041 0
-4060 4050 0
-4060 4047 0
-4060 4041 0
4061 -4059 -4052 -4060 0
-4061 4059 0
-4061 4052 0
-4061 4060 0
4062 -4058 -4051 -4056 0
-4062 4058 0
-4062 4051 0
-4062 4056 0
4063 -4060 -4051 -4060 0
-4063 4060 0
-4063 4051 0
-4063 4060 0
4064 -4054 -4059 -4056 0
-4064 4054 0
-4064 4059 0
-4064 4056 0
4065 -4054 -4055 -4060 0
-4065 4054 0
-4065 4055 0
-4065 4060 0
4066 -4054 -4054 -4053 0
-4066 4054 0
-4066 4054 0
-4066 4053 0
4067 -4055 -4059 -4055 0
-4067 4055 0
-4067 4059 0
-4067 4055 0
4068 -4058 -4060 -4058 0
-4068 4058 0
-4068 4060 0
-4068 4058 0
4069 -4051 -4060 -4054 0
-4069 4051 0
-4069 4060 0
-4069 4054 0
4070 -4060 -4059 -4059 0
-4070 4060 0
-4070 4059 0
-4070 4059 0
4071 -4069 -4070 -4064 0
-4071 4069 0
-4071 4070 0
-4071 4064 0
4072 -4064 -4066 -4063 0
-4072 4064 0
-4072 4066 0
-4072 4063 0
4073 -4066 -4068 -4064 0
-4073 4066 0
-4073 4068 0
-4073 4064 0
4074 -4063 -4067 -4066 0
-4074 4063 0
-4074 4067 0
-4074 4066 0
4075 -4067 -4066 -4067 0
-4075 4067 0
-4075 4066 0
-4075 4067 0
4076 -4065 -4067 -4070 0
-4076 4065 0
-4076 4067 0
-4076 4070 0
4077 -4067 -4070 -4069 0
-4077 4067 0
-4077 4070 0
-4077 4069 0
4078 -4066 -4066 -4061 0
-4078 4066 0
-4078 4066 0
-4078 4061 0
4079 -4063 -4062 -4063 0
-4079 4063 0
-4079 4062 0
-4079 4063 0
4080 -4067 -4061 -4069 0
-4080 4067 0
-4080 4061 0
-4080 4069 0
4081 -4076 -4072 -4074 0
-4081 4076 0
-4081 4072 0
-4081 4074 0
4082 -4073 -4076 -4074 0
-4082 4073 0
-4082 4076 0
-4082 4074 0
4083 -4080 -4074 -4071 0
-4083 4080 0
-4083 4074 0
-4083 4071 0
4084 -4079 -4076 -4076 0
-4084 4079 0
-4084 4076 0
-4084 4076 0
4085 -4073 -4076 -4072 0
-4085 4073 0
-4085 4076 0
-4085 4072 0
4086 -4076 -4074 -4071 0
-4086 4076 0
-4086 4074 0
-4086 4071 0
4087 -4079 -4076 -4077 0
-4087 4079 0
-4087 4076 0
-4087 4077 0
4088 -4075 -4072 -4075 0
-4088 4075 0
-4088 4072 0
-4088 4075 0
4089 -4072 -4080 -4074 0
-4089 4072 0
-4089 4080 0
-4089 4074 0
4090 -4077 -4080 -4080 0
-4090 4077 0
-4090 4080 0
-4090 4080 0
4091 -4090 -4087 -4089 0
-4091 4090 0
-4091 4087 0
-4091 4089 0
4092 -4081 -4088 -4082 0
-4092 4081 0
-4092 4088 0
-4092 4082 0
4093 -4084 -4088 -4090 0
-4093 4084 0
-4093 4088 0
-4093 4090 0
4094 -4089 -4086 -4082 0
-4094 4089 0
-4094 4086 0
-4094 4082 0
4095 -4087 -4087 -4089 0
-4095 4087 0
-4095 4087 0
-4095 4089 0
4096 -4090 -4085 -4086 0
-4096 4090 0
-4096 4085 0
-4096 4086 0
4097 -4087 -4081 -4082 0
-4097 4087 0
-4097 4081 0
-4097 4082 0
4098 -4082 -4088 -4090 0
-4098 4082 0
-4098 4088 0
-4098 4090 0
4099 -4084 -4081 -4085 0
-4099 4084 0
-4099 4081 0
-4099 4085 0
4100 -4088 -4086 -4087 0
-4100 4088 0
-4100 4086 0
-4100 4087 0
4101 -4097 -4094 -4097 0
-4101 4097 0
-4101 4094 0
-4101 4097 0
4102 -4095 -4100 -4092 0
-4102 4095 0
-4102 4100 0
-4102 4092 0
4103 -4098 -4093 -4095 0
-4103 4098 0
-4103 4093 0
-4103 4095 0
4104 -4097 -4097 -4095 0
-4104 4097 0
-4104 4097 0
-4104 4095 0
4105 -4097 -4091 -4099 0
-4105 4097 0
-4105 4091 0
-4105 4099 0
4106 -4099 -4094 -4098 0
-4106 4099 0
-4106 4094 0
-4106 4098 0
4107 -4093 -4094 -4091 0
-4107 4093 0
-4107 4094 0
-4107 4091 0
4108 -4095 -4093 -4093 0
-4108 4095 0
-4108 4093 0
-4108 4093 0
4109 -4091 -4099 -4098 0
-4109 4091 0
-4109 4099 0
-4109 4098 0
4110 -4095 -4099 -4094 0
-4110 4095 0
-4110 4099 0
-4110 4094 0
4111 -4101 -4105 -4105 0
-4111 4101 0
-4111 4105 0
-4111 4105 0
4112 -4103 -4105 -4108 0
-4112 4103 0
-4112 4105 0
-4112 4108 0
4113 -4107 -4107 -4106 0
-4113 4107 0
-4113 4107 0
-4113 4106 0
4114 -4110 -4108 -4107 0
-4114 4110 0
-4114 4108 0
-4114 4107 0
4115 -4106 -4102 -4108 0
-4115 4106 0
-4115 4102 0
-4115 4108 0
4116 -4106 -4109 -4101 0
-4116 4106 0
-4116 4109 0
-4116 4101 0
4117 -4105 -4109 -4103 0
-4117 4105 0
-4117 4109 0
-4117 4103 0
4118 -4105 -4103 -4105 0
-4118 4105 0
-4118 4103 0
-4118 4105 0
4119 -4102 -4105 -4102 0
-4119 4102 0
-4119 4105 0
-4119 4102 0
4120 -4102 -4110 -4109 0
-4120 4102 0
-4120 4110 0
-4120 4109 0
4121 -4111 -4120 -4113 0
-4121 4111 0
-4121 4120 0
-4121 4113 0
4122 -4115 -4114 -4116 0
-4122 4115 0
-4122 4114 0
-4122 4116 0
4123 -4115 -4115 -4113 0
-4123 4115 0
-4123 4115 0
-4123 4113 0
4124 -4114 -4118 -4118 0
-4124 4114 0
-4124 4118 0
-4124 4118 0
4125 -4112 -4112 -4117 0
-4125 4112 0
-4125 4112 0
-4125 4117 0
4126 -4114 -4119 -4119 0
-4126 4114 0
-4126 4119 0
-4126 4119 0
4127 -4111 -4120 -4115 0
-4127 4111 0
-4127 4120 0
-4127 4115 0
4128 -4119 -4115 -4118 0
-4128 4119 0
-4128 4115 0
-4128 4118 0
4129 -4112 -4119 -4118 0
-4129 4112 0
-4129 4119 0
-4129 4118 0
4130 -4114 -4115 -4113 0
-4130 4114 0
-4130 4115 0
-4130 4113 0
4131 -4128 -4124 -4122 0
-4131 4128 0
-4131 4124 0
-4131 4122 0
4132 -4126 -4123 -4129 0
-4132 4126 0
-4132 4123 0
-4132 4129 0
4133 -4124 -4129 -4123 0
-4133 4124 0
-4133 4129 0
-4133 4123 0
4134 -4123 -4121 -4125 0
-4134 4123 0
-4134 4121 0
-4134 4125 0
4135 -4124 -4121 -4125 0
-4135 4124 0
-4135 4121 0
-4135 4125 0
4136 -4122 -4125 -4128 0
-4136 4122 0
-4136 4125 0
-4136 4128 0
4137 -4125 -4124 -4122 0
-4137 4125 0
-4137 4124 0
-4137 4122 0
4138 -4123 -4126 -4122 0
-4138 4123 0
-4138 4126 0
-4138 4122 0
4139 -4129 -4126 -4125 0
-4139 4129 0
-4139 4126 0
-4139 4125 0
4140 -4126 -4129 -4126 0
-4140 4126 0
-4140 4129 0
-4140 4126 0
4141 -4136 -4131 -4140 0
-4141 4136 0
-4141 4131 0
-4141 4140 0
4142 -4132 -4137 -4134 0
-4142 4132 0
-4142 4137 0
-4142 4134 0
4143 -4135 -4132 -4134 0
-4143 4135 0
-4143 4132 0
-4143 4134 0
4144 -4139 -4138 -4135 0
-4144 4139 0
-4144 4138 0
-4144 4135 0
4145 -4131 -4137 -4133 0
-4145 4131 0
-4145 4137 0
-4145 4133 0
4146 -4139 -4131 -4133 0
-4146 4139 0
-4146 4131 0
-4146 4133 0
4147 -4135 -4132 -4133 0
-4147 4135 0
-4147 4132 0
-4147 4133 0
4148 -4133 -4135 -4135 0
-4148 4133 0
-4148 4135 0
-4148 4135 0
4149 -4135 -4139 -4131 0
-4149 4135 0
-4149 4139 0
-4149 4131 0
4150 -4136 -4137 -4132 0
-4150 4136 0
-4150 4137 0
-4150 4132 0
4151 -4148 -4145 -4145 0
-4151 4148 0
-4151 4145 0
-4151 4145 0
4152 -4141 -4142 -4150 0
-4152 4141 0
-4152 4142 0
-4152 4150 0
4153 -4148 -4150 -4147 0
-4153 4148 0
-4153 4150 0
-4153 4147 0
4154 -4143 -4144 -4145 0
-4154 4143 0
-4154 4144 0
-4154 4145 0
4155 -4150 -4146 -4147 0
-4155 4150 0
-4155 4146 0
-4155 4147 0
4156 -4143 -4146 -4141 0
-4156 4143 0
-4156 4146 0
-4156 4141 0
4157 -4143 -4142 -4148 0
-4157 4143 0
-4157 4142 0
-4157 4148 0
4158 -4150 -4149 -4147 0
-4158 4150 0
-4158 4149 0
-4158 4147 0
4159 -4148 -4148 -4148 0
-4159 4148 0
-4159 4148 0
-4159 4148 0
4160 -4149 -4147 -4147 0
-4160 4149 0
-4160 4147 0
-4160 4147 0
4161 -4154 -4153 -4160 0
-4161 4154 0
-4161 4153 0
-4161 4160 0
4162 -4153 -4156 -4155 0
-4162 4153 0
-4162 4156 0
-4162 4155 0
4163 -4155 -4156 -4153 0
-4163 4155 0
-4163 4156 0
-4163 4153 0
4164 -4154 -4152 -4156 0
-4164 4154 0
-4164 4152 0
-4164 4156 0
4165 -4160 -4158 -4160 0
-4165 4160 0
-4165 4158 0
-4165 4160 0
4166 -4155 -4153 -4155 0
-4166 4155 0
-4166 4153 0
-4166 4155 0
4167 -4158 -4153 -4157 0
-4167 4158 0
-4167 4153 0
-4167 4157 0
4168 -4158 -4153 -4156 0
-4168 4158 0
-4168 4153 0
-4168 4156 0
4169 -4160 -4152 -4156 0
-4169 4160 0
-4169 4152 0
-4169 4156 0
4170 -4158 -4157 -4155 0
-4170 4158 0
-4170 4157 0
-4170 4155 0
4171 -4165 -4161 -4166 0
-4171 4165 0
-4171 4161 0
-4171 4166 0
4172 -4161 -4164 -4161 0
-4172 4161 0
-4172 4164 0
-4172 4161 0
4173 -4164 -4167 -4161 0
-4173 4164 0
-4173 4167 0
-4173 4161 0
4174 -4163 -4165 -4165 0
-4174 4163 0
-4174 4165 0
-4174 4165 0
4175 -4168 -4162 -4164 0
-4175 4168 0
-4175 4162 0
-4175 4164 0
4176 -4163 -4168 -4165 0
-4176 4163 0
-4176 4168 0
-4176 4165 0
4177 -4161 -4168 -4166 0
-4177 4161 0
-4177 4168 0
-4177 4166 0
4178 -4162 -4169 -4163 0
-4178 4162 0
-4178 4169 0
-4178 4163 0
4179 -4163 -4165 -4169 0
-4179 4163 0
-4179 4165 0
-4179 4169 0
4180 -4167 -4162 -4164 0
-4180 4167 0
-4180 4162 0
-4180 4164 0
4181 -4180 -4178 -4176 0
-4181 4180 0
-4181 4178 0
-4181 4176 0
4182 -4173 -4179 -4175 0
-4182 4173 0
-4182 4179 0
-4182 4175 0
4183 -4178 -4171 -4177 0
-4183 4178 0
-4183 4171 0
-4183 4177 0
4184 -4176 -4174 -4172 0
-4184 4176 0
-4184 4174 0
-4184 4172 0
4185 -4172 -4176 -4172 0
-4185 4172 0
-4185 4176 0
-4185 4172 0
4186 -4179 -4178 -4179 0
-4186 4179 0
-4186 4178 0
-4186 4179 0
4187 -4171 -4178 -4177 0
-4187 4171 0
-4187 4178 0
-4187 4177 0
4188 -4174 -4177 -4180 0
-4188 4174 0
-4188 4177 0
-4188 4180 0
4189 -4176 -4173 -4174 0
-4189 4176 0
-4189 4173 0
-4189 4174 0
4190 -4175 -4177 -4171 0
-4190 4175 0
-4190 4177 0
-4190 4171 0
4191 -4188 -4185 -4186 0
-4191 4188 0
-4191 4185 0
-4191 4186 0
4192 -4181 -4182 -4182 0
-4192 4181 0
-4192 4182 0
-4192 4182 0
4193 -4184 -4183 -4189 0
-4193 4184 0
-4193 4183 0
-4193 4189 0
4194 -4182 -4184 -4188 0
-4194 4182 0
-4194 4184 0
-4194 4188 0
4195 -4189 -4186 -4182 0
-4195 4189 0
-4195 4186 0
-4195 4182 0
4196 -4182 -4185 -4184 0
-4196 4182 0
-4196 4185 0
-4196 4184 0
4197 -4185 -4188 -4182 0
-4197 4185 0
-4197 4188 0
-4197 4182 0
4198 -4184 -4190 -4185 0
-4198 4184 0
-4198 4190 0
-4198 4185 0
4199 -4186 -4185 -4186 0
-4199 4186 0
-4199 4185 0
-4199 4186 0
4200 -4190 -4187 -4182 0
-4200 4190 0
-4200 4187 0
-4200 4182 0
4201 -4199 -4196 -4198 0
-4201 4199 0
-4201 4196 0
-4201 4198 0
4202 -4197 -4196 -4193 0
-4202 4197 0
-4202 4196 0
-4202 4193 0
4203 -4195 -4200 -4191 0
-4203 4195 0
-4203 4200 0
-4203 4191 0
4204 -4199 -4195 -4196 0
-4204 4199 0
-4204 4195 0
-4204 4196 0
4205 -4191 -4199 -4198 0
-4205 4191 0
-4205 4199 0
-4205 4198 0
4206 -4199 -4200 -4191 0
-4206 4199 0
-4206 4200 0
-4206 4191 0
4207 -4198 -4192 -4191 0
-4207 4198 0
-4207 4192 0
-4207 4191 0
4208 -4196 -4196 -4194 0
-4208 4196 0
-4208 4196 0
-4208 4194 0
4209 -4195 -4199 -4197 0
-4209 4195 0
-4209 4199 0
-4209 4197 0
4210 -4196 -4195 -4200 0
-4210 4196 0
-4210 4195 0
-4210 4200 0
4211 -4201 -4204 -4208 0
-4211 4201 0
-4211 4204 0
-4211 4208 0
4212 -4208 -4206 -4203 0
-4212 4208 0
-4212 4206 0
-4212 4203 0
4213 -4206 -4206 -4206 0
-4213 4206 0
-4213 4206 0
-4213 4206 0
4214 -4201 -4206 -4202 0
-4214 4201 0
-4214 4206 0
-4214 4202 0
4215 -4204 -4207 -4207 0
-4215 4204 0
-4215 4207 0
-4215 4207 0
4216 -4209 -4204 -4210 0
-4216 4209 0
-4216 4204 0
-4216 4210 0
4217 -4208 -4207 -4210 0
-4217 4208 0
-4217 4207 0
-4217 4210 0
4218 -4207 -4208 -4210 0
-4218 4207 0
-4218 4208 0
-4218 4210 0
4219 -4203 -4204 -4210 0
-4219 4203 0
-4219 4204 0
-4219 4210 0
4220 -4208 -4207 -4209 0
-4220 4208 0
-4220 4207 0
-4220 4209 0
4221 -4212 -4216 -4218 0
-4221 4212 0
-4221 4216 0
-4221 4218 0
4222 -4218 -4213 -4214 0
-4222 4218 0
-4222 4213 0
-4222 4214 0
4223 -4217 -4211 -4219 0
-4223 4217 0
-4223 4211 0
-4223 4219 0
4224 -4214 -4212 -4211 0
-4224 4214 0
-4224 4212 0
-4224 4211 0
4225 -4219 -4216 -4212 0
-4225 4219 0
-4225 4216 0
-4225 4212 0
4226 -4220 -4219 -4220 0
-4226 4220 0
-4226 4219 0
-4226 4220 0
4227 -4214 -4217 -4216 0
-4227 4214 0
-4227 4217 0
-4227 4216 0
4228 -4215 -4219 -4217 0
-4228 4215 0
-4228 4219 0
-4228 4217 0
4229 -4211 -4213 -4213 0
-4229 4211 0
-4229 4213 0
-4229 4213 0
4230 -4219 -4211 -4215 0
-4230 4219 0
-4230 4211 0
-4230 4215 0
4231 -4223 -4224 -4228 0
-4231 4223 0
-4231 4224 0
-4231 4228 0
4232 -4230 -4221 -4224 0
-4232 4230 0
-4232 4221 0
-4232 4224 0
4233 -4229 -4221 -4221 0
-4233 4229 0
-4233 4221 0
-4233 4221 0
4234 -4229 -4223 -4222 0
-4234 4229 0
-4234 4223 0
-4234 4222 0
4235 -4230 -4224 -4229 0
-4235 4230 0
-4235 4224 0
-4235 4229 0
4236 -4227 -4229 -4225 0
-4236 4227 0
-4236 4229 0
-4236 4225 0
4237 -4222 -4230 -4224 0
-4237 4222 0
-4237 4230 0
-4237 4224 0
4238 -4222 -4225 -4224 0
-4238 4222 0
-4238 4225 0
-4238 4224 0
4239 -4229 -4225 -4225 0
-4239 4229 0
-4239 4225 0
-4239 4225 0
4240 -4224 -4224 -4226 0
-4240 4224 0
-4240 4224 0
-4240 4226 0
4241 -4231 -4234 -4233 0
-4241 4231 0
-4241 4234 0
-4241 4233 0
4242 -4238 -4237 -4233 0
-4242 4238 0
-4242 4237 0
-4242 4233 0
4243 -4240 -4234 -4239 0
-4243 4240 0
-4243 4234 0
-4243 4239 0
4244 -4234 -4239 -4233 0
-4244 4234 0
-4244 4239 0
-4244 4233 0
4245 -4233 -4235 -4235 0
-4245 4233 0
-4245 4235 0
-4245 4235 0
4246 -4234 -4233 -4239 0
-4246 4234 0
-4246 4233 0
-4246 4239 0
4247 -4236 -4238 -4237 0
-4247 4236 0
-4247 4238 0
-4247 4237 0
4248 -4234 -4238 -4239 0
-4248 4234 0
-4248 4238 0
-4248 4239 0
4249 -4233 -4234 -4232 0
-4249 4233 0
-4249 4234 0
-4249 4232 0
4250 -4234 -4237 -4237 0
-4250 4234 0
-4250 4237 0
-4250 4237 0
4251 -4244 -4245 -4242 0
-4251 4244 0
-4251 4245 0
-4251 4242 0
4252 -4250 -4249 -4250 0
-4252 4250 0
-4252 4249 0
-4252 4250 0
4253 -4241 -4246 -4241 0
-4253 4241 0
-4253 4246 0
-4253 4241 0
4254 -4246 -4242 -4247 0
-4254 4246 0
-4254 4242 0
-4254 4247 0
4255 -4241 -4248 -4249 0
-4255 4241 0
-4255 4248 0
-4255 4249 0
4256 -4242 -4244 -4242 0
-4256 4242 0
-4256 4244 0
-4256 4242 0
4257 -4241 -4247 -4241 0
-4257 4241 0
-4257 4247 0
-4257 4241 0
4258 -4242 -4244 -4250 0
-4258 4242 0
-4258 4244 0
-4258 4250 0
4259 -4245 -4246 -4246 0
-4259 4245 0
-4259 4246 0
-4259 4246 0
4260 -4244 -4241 -4244 0
-4260 4244 0
-4260 4241 0
-4260 4244 0
4261 -4256 -4258 -4253 0
-4261 4256 0
-4261 4258 0
-4261 4253 0
4262 -4255 -4257 -4251 0
-4262 4255 0
-4262 4257 0
-4262 4251 0
4263 -4253 -4258 -4252 0
-4263 4253 0
-4263 4258 0
-4263 4252 0
4264 -4252 -4251 -4253 0
-4264 4252 0
-4264 4251 0
-4264 4253 0
4265 -4256 -4254 -4254 0
-4265 4256 0
-4265 4254 0
-4265 4254 0
4266 -4255 -4251 -4251 0
-4266 4255 0
-4266 4251 0
-4266 4251 0
4267 -4259 -4259 -4255 0
-4267 4259 0
-4267 4259 0
-4267 4255 0
4268 -4259 -4251 -4256 0
-4268 4259 0
-4268 4251 0
-4268 4256 0
4269 -4251 -4253 -4253 0
-4269 4251 0
-4269 4253 0
-4269 4253 0
4270 -4252 -4256 -4252 0
-4270 4252 0
-4270 4256 0
-4270 4252 0
4271 -4261 -4267 -4268 0
-4271 4261 0
-4271 4267 0
-4271 4268 0
4272 -4263 -4267 -4263 0
-4272 4263 0
-4272 4267 0
-4272 4263 0
4273 -4269 -4269 -4269 0
-4273 4269 0
-4273 4269 0
-4273 4269 0
4274 -4269 -4270 -4261 0
-4274 4269 0
-4274 4270 0
-4274 4261 0
4275 -4270 -4267 -4262 0
-4275 4270 0
-4275 4267 0
-4275 4262 0
4276 -4263 -4267 -4269 0
-4276 4263 0
-4276 4267 0
-4276 4269 0
4277 -4262 -4266 -4264 0
-4277 4262 0
-4277 4266 0
-4277 4264 0
4278 -4269 -4263 -4264 0
-4278 4269 0
-4278 4263 0
-4278 4264 0
4279 -4269 -4267 -4270 0
-4279 4269 0
-4279 4267 0
-4279 4270 0
4280 -4262 -4270 -4269 0
-4280 4262 0
-4280 4270 0
-4280 4269 0
4281 -4278 -4274 -4271 0
-4281 4278 0
-4281 4274 0
-4281 4271 0
4282 -4274 -4278 -4274 0
-4282 4274 0
-4282 4278 0
-4282 4274 0
4283 -4275 -4279 -4274 0
-4283 4275 0
-4283 4279 0
-4283 4274 0
4284 -4279 -4273 -4276 0
-4284 4279 0
-4284 4273 0
-4284 4276 0
4285 -4277 -4272 -4272 0
-4285 4277 0
-4285 4272 0
-4285 4272 0
4286 -4280 -4279 -4271 0
-4286 4280 0
-4286 4279 0
-4286 4271 0
4287 -4279 -4280 -4279 0
-4287 4279 0
-4287 4280 0
-4287 4279 0
4288 -4274 -4276 -4275 0
-4288 4274 0
-4288 4276 0
-4288 4275 0
4289 -4273 -4273 -4278 0
-4289 4273 0
-4289 4273 0
-4289 4278 0
4290 -4277 -4279 -4271 0
-4290 4277 0
-4290 4279 0
-4290 4271 0
4291 -4281 -4288 -4288 0
-4291 4281 0
-4291 4288 0
-4291 4288 0
4292 -4283 -4283 -4282 0
-4292 4283 0
-4292 4283 0
-4292 4282 0
4293 -4285 -4289 -4283 0
-4293 4285 0
-4293 4289 0
-4293 4283 0
4294 -4283 -4281 -4287 0
-4294 4283 0
-4294 4281 0
-4294 4287 0
4295 -4281 -4286 -4287 0
-4295 4281 0
-4295 4286 0
-4295 4287 0
4296 -4285 -4289 -4289 0
-4296 4285 0
-4296 4289 0
-4296 4289 0
4297 -4287 -4282 -4283 0
-4297 4287 0
-4297 4282 0
-4297 4283 0
4298 -4287 -4283 -4286 0
-4298 4287 0
-4298 4283 0
-4298 4286 0
4299 -4286 -4281 -4288 0
-4299 4286 0
-4299 4281 0
-4299 4288 0
4300 -4286 -4289 -4285 0
-4300 4286 0
-4300 4289 0
-4300 4285 0
4301 -4300 -4292 -4291 0
-4301 4300 0
-4301 4292 0
-4301 4291 0
4302 -4295 -4291 -4300 0
-4302 4295 0
-4302 4291 0
-4302 4300 0
4303 -4295 -4296 -4291 0
-4303 4295 0
-4303 4296 0
-4303 4291 0
4304 -4292 -4293 -4294 0
-4304 4292 0
-4304 4293 0
-4304 4294 0
4305 -4294 -4292 -4294 0
-4305 4294 0
-4305 4292 0
-4305 4294 0
4306 -4294 -4293 -4293 0
-4306 4294 0
-4306 4293 0
-4306 4293 0
4307 -4292 -4299 -4291 0
-4307 4292 0
-4307 4299 0
-4307 4291 0
4308 -4297 -4300 -4293 0
-4308 4297 0
-4308 4300 0
-4308 4293 0
4309 -4298 -4294 -4300 0
-4309 4298 0
-4309 4294 0
-4309 4300 0
4310 -4298 -4295 -4294 0
-4310 4298 0
-4310 4295 0
-4310 4294 0
4311 -4302 -4310 -4304 0
-4311 4302 0
-4311 4310 0
-4311 4304 0
4312 -4306 -4308 -4306 0
-4312 4306 0
-4312 4308 0
-4312 4306 0
4313 -4308 -4305 -4302 0
-4313 4308 0
-4313 4305 0
-4313 4302 0
4314 -4303 -4308 -4304 0
-4314 4303 0
-4314 4308 0
-4314 4304 0
4315 -4306 -4302 -4301 0
-4315 4306 0
-4315 4302 0
-4315 4301 0
4316 -4309 -4303 -4310 0
-4316 4309 0
-4316 4303 0
-4316 4310 0
4317 -4302 -4306 -4303 0
-4317 4302 0
-4317 4306 0
-4317 4303 0
4318 -4307 -4309 -4307 0
-4318 4307 0
-4318 4309 0
-4318 4307 0
4319 -4302 -4310 -4310 0
-4319 4302 0
-4319 4310 0
-4319 4310 0
4320 -4308 -4306 -4310 0
-4320 4308 0
-4320 4306 0
-4320 4310 0
4321 -4311 -4312 -4320 0
-4321 4311 0
-4321 4312 0
-4321 4320 0
4322 -4319 -4318 -4320 0
-4322 4319 0
-4322 4318 0
-4322 4320 0
4323 -4311 -4315 -4314 0
-4323 4311 0
-4323 4315 0
-4323 4314 0
4324 -4313 -4318 -4317 0
-4324 4313 0
-4324 4318 0
-4324 4317 0
4325 -4318 -4312 -4315 0
-4325 4318 0
-4325 4312 0
-4325 4315 0
4326 -4312 -4318 -4312 0
-4326 4312 0
-4326 4318 0
-4326 4312 0
4327 -4311 -4320 -4313 0
-4327 4311 0
-4327 4320 0
-4327 4313 0
4328 -4314 -4318 -4317 0
-4328 4314 0
-4328 4318 0
-4328 4317 0
4329 -4312 -4316 -4320 0
-4329 4312 0
-4329 4316 0
-4329 4320 0
4330 -4320 -4316 -4318 0
-4330 4320 0
-4330 4316 0
-4330 4318 0
4331 -4330 -4324 -4327 0
-4331 4330 0
-4331 4324 0
-4331 4327 0
4332 -4322 -4325 -4329 0
-4332 4322 0
-4332 4325 0
-4332 4329 0
4333 -4326 -4327 -4330 0
-4333 4326 0
-4333 4327 0
-4333 4330 0
4334 -4330 -4324 -4325 0
-4334 4330 0
-4334 4324 0
-4334 4325 0
4335 -4325 -4325 -4329 0
-4335 4325 0
-4335 4325 0
-4335 4329 0
4336 -4324 -4329 -4328 0
-4336 4324 0
-4336 4329 0
-4336 4328 0
4337 -4324 -4322 -4326 0
-4337 4324 0
-4337 4322 0
-4337 4326 0
4338 -4328 -4323 -4321 0
-4338 4328 0
-4338 4323 0
-4338 4321 0
4339 -4329 -4321 -4328 0
-4339 4329 0
-4339 4321 0
-4339 4328 0
4340 -4321 -4324 -4325 0
-4340 4321 0
-4340 4324 0
-4340 4325 0
4341 -4331 -4331 -4333 0
-4341 4331 0
-4341 4331 0
-4341 4333 0
4342 -4340 -4336 -4331 0
-4342 4340 0
-4342 4336 0
-4342 4331 0
4343 -4338 -4340 -4333 0
-4343 4338 0
-4343 4340 0
-4343 4333 0
4344 -4336 -4335 -4340 0
-4344 4336 0
-4344 4335 0
-4344 4340 0
4345 -4332 -4336 -4332 0
-4345 4332 0
-4345 4336 0
-4345 4332 0
4346 -4339 -4331 -4338 0
-4346 4339 0
-4346 4331 0
-4346 4338 0
4347 -4336 -4335 -4333 0
-4347 4336 0
-4347 4335 0
-4347 4333 0
4348 -4340 -4335 -4334 0
-4348 4340 0
-4348 4335 0
-4348 4334 0
4349 -4332 -4336 -4338 0
-4349 4332 0
-4349 4336 0
-4349 4338 0
4350 -4334 -4335 -4337 0
-4350 4334 0
-4350 4335 0
-4350 4337 0
4351 -4341 -4350 -4346 0
-4351 4341 0
-4351 4350 0
-4351 4346 0
4352 -4347 -4342 -4348 0
-4352 4347 0
-4352 4342 0
-4352 4348 0
4353 -4342 -4342 -4346 0
-4353 4342 0
-4353 4342 0
-4353 4346 0
4354 -4341 -4341 -4343 0
-4354 4341 0
-4354 4341 0
-4354 4343 0
4355 -4349 -4350 -4344 0
-4355 4349 0
-4355 4350 0
-4355 4344 0
4356 -4341 -4342 -4341 0
-4356 4341 0
-4356 4342 0
-4356 4341 0
4357 -4343 -4349 -4346 0
-4357 4343 0
-4357 4349 0
-4357 4346 0
4358 -4349 -4346 -4342 0
-4358 4349 0
-4358 4346 0
-4358 4342 0
4359 -4348 -4350 -4343 0
-4359 4348 0
-4359 4350 0
-4359 4343 0
4360 -4347 -4342 -4342 0
-4360 4347 0
-4360 4342 0
-4360 4342 0
4361 -4357 -4355 -4358 0
-4361 4357 0
-4361 4355 0
-4361 4358 0
4362 -4351 -4358 -4354 0
-4362 4351 0
-4362 4358 0
-4362 4354 0
4363 -4355 -4357 -4354 0
-4363 4355 0
-4363 4357 0
-4363 4354 0
4364 -4357 -4351 -4353 0
-4364 4357 0
-4364 4351 0
-4364 4353 0
4365 -4354 -4353 -4360 0
-4365 4354 0
-4365 4353 0
-4365 4360 0
4366 -4358 -4358 -4356 0
-4366 4358 0
-4366 4358 0
-4366 4356 0
4367 -4355 -4354 -4360 0
-4367 4355 0
-4367 4354 0
-4367 4360 0
4368 -4356 -4358 -4354 0
-4368 4356 0
-4368 4358 0
-4368 4354 0
4369 -4354 -4352 -4352 0
-4369 4354 0
-4369 4352 0
-4369 4352 0
4370 -4360 -4359 -4352 0
-4370 4360 0
-4370 4359 0
-4370 4352 0
4371 -4366 -4364 -4367 0
-4371 4366 0
-4371 4364 0
-4371 4367 0
4372 -4363 -4364 -4362 0
-4372 4363 0
-4372 4364 0
-4372 4362 0
4373 -4361 -4367 -4369 0
-4373 4361 0
-4373 4367 0
-4373 4369 0
4374 -4365 -4365 -4364 0
-4374 4365 0
-4374 4365 0
-4374 4364 0
4375 -4363 -4365 -4366 0
-4375 4363 0
-4375 4365 0
-4375 4366 0
4376 -4370 -4370 -4370 0
-4376 4370 0
-4376 4370 0
-4376 4370 0
4377 -4368 -4367 -4367 0
-4377 4368 0
-4377 4367 0
-4377 4367 0
4378 -4364 -4365 -4361 0
-4378 4364 0
-4378 4365 0
-4378 4361 0
4379 -4364 -4370 -4367 0
-4379 4364 0
-4379 4370 0
-4379 4367 0
4380 -4365 -4365 -4367 0
-4380 4365 0
-4380 4365 0
-4380 4367 0
4381 -4375 -4378 -4374 0
-4381 4375 0
-4381 4378 0
-4381 4374 0
4382 -4379 -4373 -4371 0
-4382 4379 0
-4382 4373 0
-4382 4371 0
4383 -4373 -4374 -4378 0
-4383 4373 0
-4383 4374 0
-4383 4378 0
4384 -4374 -4380 -4373 0
-4384 4374 0
-4384 4380 0
-4384 4373 0
4385 -4378 -4380 -4377 0
-4385 4378 0
-4385 4380 0
-4385 4377 0
4386 -4380 -4375 -4379 0
-4386 4380 0
-4386 4375 0
-4386 4379 0
4387 -4375 -4373 -4380 0
-4387 4375 0
-4387 4373 0
-4387 4380 0
4388 -4373 -4378 -4375 0
-4388 4373 0
-4388 4378 0
-4388 4375 0
4389 -4377 -4378 -4379 0
-4389 4377 0
-4389 4378 0
-4389 4379 0
4390 -4373 -4374 -4380 0
-4390 4373 0
-4390 4374 0
-4390 4380 0
4391 -4384 -4386 -4390 0
-4391 4384 0
-4391 4386 0
-4391 4390 0
4392 -4389 -4383 -4390 0
-4392 4389 0
-4392 4383 0
-4392 4390 0
4393 -4381 -4388 -4388 0
-4393 4381 0
-4393 4388 0
-4393 4388 0
4394 -4385 -4387 -4387 0
-4394 4385 0
-4394 4387 0
-4394 4387 0
4395 -4386 -4387 -4389 0
-4395 4386 0
-4395 4387 0
-4395 4389 0
4396 -4383 -4382 -4389 0
-4396 4383 0
-4396 4382 0
-4396 4389 0
4397 -4388 -4386 -4387 0
-4397 4388 0
-4397 4386 0
-4397 4387 0
4398 -4382 -4383 -4388 0
-4398 4382 0
-4398 4383 0
-4398 4388 0
4399 -4381 -4386 -4389 0
-4399 4381 0
-4399 4386 0
-4399 4389 0
4400 -4389 -4388 -4389 0
-4400 4389 0
-4400 4388 0
-4400 4389 0
4401 -4400 -4393 -4393 0
-4401 4400 0
-4401 4393 0
-4401 4393 0
4402 -4398 -4395 -4394 0
-4402 4398 0
-4402 4395 0
-4402 4394 0
4403 -4392 -4391 -4395 0
-4403 4392 0
-4403 4391 0
-4403 4395 0
4404 -4395 -4395 -4397 0
-4404 4395 0
-4404 4395 0
-4404 4397 0
4405 -4398 -4393 -4392 0
-4405 4398 0
-4405 4393 0
-4405 4392 0
4406 -4395 -4392 -4400 0
-4406 4395 0
-4406 4392 0
-4406 4400 0
4407 -4399 -4395 -4397 0
-4407 4399 0
-4407 4395 0
-4407 4397 0
4408 -4400 -4393 -4394 0
-4408 4400 0
-4408 4393 0
-4408 4394 0
4409 -4399 -4397 -4398 0
-4409 4399 0
-4409 4397 0
-4409 4398 0
4410 -4399 -4400 -4394 0
-4410 4399 0
-4410 4400 0
-4410 4394 0
4411 -4401 -4408 -4407 0
-4411 4401 0
-4411 4408 0
-4411 4407 0
4412 -4410 -4409 -4409 0
-4412 4410 0
-4412 4409 0
-4412 4409 0
4413 -4408 -4407 -4407 0
-4413 4408 0
-4413 4407 0
-4413 4407 0
4414 -4402 -4402 -4408 0
-4414 4402 0
-4414 4402 0
-4414 4408 0
4415 -4410 -4403 -4403 0
-4415 4410 0
-4415 4403 0
-4415 4403 0
4416 -4405 -4408 -4410 0
-4416 4405 0
-4416 4408 0
-4416 4410 0
4417 -4402 -4403 -4410 0
-4417 4402 0
-4417 4403 0
-4417 4410 0
4418 -4407 -4404 -4406 0
-4418 4407 0
-4418 4404 0
-4418 4406 0
4419 -4409 -4406 -4409 0
-4419 4409 0
-4419 4406 0
-4419 4409 0
4420 -4402 -4401 -4403 0
-4420 4402 0
-4420 4401 0
-4420 4403 0
4421 -4416 -4415 -4413 0
-4421 4416 0
-4421 4415 0
-4421 4413 0
4422 -4420 -4420 -4412 0
-4422 4420 0
-4422 4420 0
-4422 4412 0
4423 -4420 -4418 -4412 0
-4423 4420 0
-4423 4418 0
-4423 4412 0
4424 -4420 -4417 -4414 0
-4424 4420 0
-4424 4417 0
-4424 4414 0
4425 -4411 -4419 -4411 0
-4425 4411 0
-4425 4419 0
-4425 4411 0
4426 -4411 -4419 -4412 0
-4426 4411 0
-4426 4419 0
-4426 4412 0
4427 -4419 -4412 -4415 0
-4427 4419 0
-4427 4412 0
-4427 4415 0
4428 -4419 -4420 -4411 0
-4428 4419 0
-4428 4420 0
-4428 4411 0
4429 -4417 -4420 -4412 0
-4429 4417 0
-4429 4420 0
-4429 4412 0
4430 -4416 -4420 -4418 0
-4430 4416 0
-4430 4420 0
-4430 4418 0
4431 -4421 -4429 -4424 0
-4431 4421 0
-4431 4429 0
-4431 4424 0
4432 -4423 -4426 -4426 0
-4432 4423 0
-4432 4426 0
-4432 4426 0
4433 -4428 -4424 -4422 0
-4433 4428 0
-4433 4424 0
-4433 4422 0
4434 -4421 -4425 -4422 0
-4434 4421 0
-4434 4425 0
-4434 4422 0
4435 -4421 -4426 -4426 0
-4435 4421 0
-4435 4426 0
-4435 4426 0
4436 -4424 -4427 -4424 0
-4436 4424 0
-4436 4427 0
-4436 4424 0
4437 -4425 -4423 -4429 0
-4437 4425 0
-4437 4423 0
-4437 4429 0
4438 -4429 -4424 -4429 0
-4438 4429 0
-4438 4424 0
-4438 4429 0
4439 -4426 -4428 -4421 0
-4439 4426 0
-4439 4428 0
-4439 4421 0
4440 -4425 -4425 -4426 0
-4440 4425 0
-4440 4425 0
-4440 4426 0
4441 -4431 -4435 -4436 0
-4441 4431 0
-4441 4435 0
-4441 4436 0
4442 -4433 -4431 -4439 0
-4442 4433 0
-4442 4431 0
-4442 4439 0
4443 -4435 -4439 -4435 0
-4443 4435 0
-4443 4439 0
-4443 4435 0
4444 -4435 -4431 -4433 0
-4444 4435 0
-4444 4431 0
-4444 4433 0
4445 -4438 -4436 -4440 0
-4445 4438 0
-4445 4436 0
-4445 4440 0
4446 -4434 -4431 -4436 0
-4446 4434 0
-4446 4431 0
-4446 4436 0
4447 -4434 -4436 -4431 0
-4447 4434 0
-4447 4436 0
-4447 4431 0
4448 -4437 -4439 -4431 0
-4448 4437 0
-4448 4439 0
-4448 4431 0
4449 -4436 -4433 -4431 0
-4449 4436 0
-4449 4433 0
-4449 4431 0
4450 -4438 -4439 -4434 0
-4450 4438 0
-4450 4439 0
-4450 4434 0
4451 -4447 -4444 -4444 0
-4451 4447 0
-4451 4444 0
-4451 4444 0
4452 -4441 -4443 -4446 0
-4452 4441 0
-4452 4443 0
-4452 4446 0
4453 -4449 -4447 -4449 0
-4453 4449 0
-4453 4447 0
-4453 4449 0
4454 -4446 -4443 -4441 0
-4454 4446 0
-4454 4443 0
-4454 4441 0
4455 -4446 -4443 -4450 0
-4455 4446 0
-4455 4443 0
-4455 4450 0
4456 -4445 -4447 -4441 0
-4456 4445 0
-4456 4447 0
-4456 4441 0
4457 -4449 -4445 -4445 0
-4457 4449 0
-4457 4445 0
-4457 4445 0
4458 -4442 -4447 -4450 0
-4458 4442 0
-4458 4447 0
-4458 4450 0
4459 -4443 -4444 -4443 0
-4459 4443 0
-4459 4444 0
-4459 4443 0
4460 -4447 -4445 -4441 0
-4460 4447 0
-4460 4445 0
-4460 4441 0
4461 -4452 -4459 -4455 0
-4461 4452 0
-4461 4459 0
-4461 4455 0
4462 -4457 -4456 -4453 0
-4462 4457 0
-4462 4456 0
-4462 4453 0
4463 -4458 -4458 -4458 0
-4463 4458 0
-4463 4458 0
-4463 4458 0
4464 -4451 -4453 -4458 0
-4464 4451 0
-4464 4453 0
-4464 4458 0
4465 -4451 -4460 -4452 0
-4465 4451 0
-4465 4460 0
-4465 4452 0
4466 -4457 -4459 -4452 0
-4466 4457 0
-4466 4459 0
-4466 4452 0
4467 -4452 -4457 -4458 0
-4467 4452 0
-4467 4457 0
-4467 4458 0
4468 -4457 -4452 -4454 0
-4468 4457 0
-4468 4452 0
-4468 4454 0
4469 -4452 -4459 -4456 0
-4469 4452 0
-4469 4459 0
-4469 4456 0
4470 -4457 -4452 -4455 0
-4470 4457 0
-4470 4452 0
-4470 4455 0
4471 -4468 -4462 -4464 0
-4471 4468 0
-4471 4462 0
-4471 4464 0
4472 -4468 -4464 -4469 0
-4472 4468 0
-4472 4464 0
-4472 4469 0
4473 -4462 -4466 -4466 0
-4473 4462 0
-4473 4466 0
-4473 4466 0
4474 -4467 -4461 -4465 0
-4474 4467 0
-4474 4461 0
-4474 4465 0
4475 -4464 -4461 -4463 0
-4475 4464 0
-4475 4461 0
-4475 4463 0
4476 -4465 -4461 -4464 0
-4476 4465 0
-4476 4461 0
-4476 4464 0
4477 -4468 -4462 -4465 0
-4477 4468 0
-4477 4462 0
-4477 4465 0
4478 -4465 -4465 -4461 0
-4478 4465 0
-4478 4465 0
-4478 4461 0
4479 -4465 -4462 -4464 0
-4479 4465 0
-4479 4462 0
-4479 4464 0
4480 -4470 -4462 -4464 0
-4480 4470 0
-4480 4462 0
-4480 4464 0
4481 -4472 -4473 -4472 0
-4481 4472 0
-4481 4473 0
-4481 4472 0
4482 -4475 -4479 -4473 0
-4482 4475 0
-4482 4479 0
-4482 4473 0
4483 -4472 -4471 -4479 0
-4483 4472 0
-4483 4471 0
-4483 4479 0
4484 -4479 -4474 -4479 0
-4484 4479 0
-4484 4474 0
-4484 4479 0
4485 -4477 -4475 -4480 0
-4485 4477 0
-4485 4475 0
-4485 4480 0
4486 -4477 -4472 -4472 0
-4486 4477 0
-4486 4472 0
-4486 4472 0
4487 -4471 -4474 -4472 0
-4487 4471 0
-4487 4474 0
-4487 4472 0
4488 -4479 -4476 -4478 0
-4488 4479 0
-4488 4476 0
-4488 4478 0
4489 -4476 -4473 -4477 0
-4489 4476 0
-4489 4473 0
-4489 4477 0
4490 -4474 -4476 -4477 0
-4490 4474 0
-4490 4476 0
-4490 4477 0
4491 -4488 -4490 -4481 0
-4491 4488 0
-4491 4490 0
-4491 4481 0
4492 -4490 -4488 -4488 0
-4492 4490 0
-4492 4488 0
-4492 4488 0
4493 -4482 -4486 -4481 0
-4493 4482 0
-4493 4486 0
-4493 4481 0
4494 -4485 -4483 -4489 0
-4494 4485 0
-4494 4483 0
-4494 4489 0
4495 -4481 -4486 -4484 0
-4495 4481 0
-4495 4486 0
-4495 4484 0
4496 -4487 -4485 -4486 0
-4496 4487 0
-4496 4485 0
-4496 4486 0
4497 -4488 -4481 -4490 0
-4497 4488 0
-4497 4481 0
-4497 4490 0
4498 -4488 -4489 -4484 0
-4498 4488 0
-4498 4489 0
-4498 4484 0
4499 -4486 -4486 -4483 0
-4499 4486 0
-4499 4486 0
-4499 4483 0
4500 -4488 -4485 -4486 0
-4500 4488 0
-4500 4485 0
-4500 4486 0
4501 -4496 -4491 -4491 0
-4501 4496 0
-4501 4491 0
-4501 4491 0
4502 -4500 -4499 -4499 0
-4502 4500 0
-4502 4499 0
-4502 4499 0
4503 -4495 -4495 -4496 0
-4503 4495 0
-4503 4495 0
-4503 4496 0
4504 -4494 -4491 -4491 0
-4504 4494 0
-4504 4491 0
-4504 4491 0
4505 -4499 -4493 -4498 0
-4505 4499 0
-4505 4493 0
-4505 4498 0
4506 -4494 -4497 -4497 0
-4506 4494 0
-4506 4497 0
-4506 4497 0
4507 -4491 -4496 -4494 0
-4507 4491 0
-4507 4496 0
-4507 4494 0
4508 -4497 -4491 -4493 0
-4508 4497 0
-4508 4491 0
-4508 4493 0
4509 -4499 -4492 -4494 0
-4509 4499 0
-4509 4492 0
-4509 4494 0
4510 -4500 -4493 -4491 0
-4510 4500 0
-4510 4493 0
-4510 4491 0
4511 -4501 -4508 -4510 0
-4511 4501 0
-4511 4508 0
-4511 4510 0
4512 -4508 -4503 -4503 0
-4512 4508 0
-4512 4503 0
-4512 4503 0
4513 -4502 -4509 -4510 0
-4513 4502 0
-4513 4509 0
-4513 4510 0
4514 -4510 -4505 -4505 0
-4514 4510 0
-4514 4505 0
-4514 4505 0
4515 -4502 -4509 -4503 0
-4515 4502 0
-4515 4509 0
-4515 4503 0
4516 -4502 -4507 -4505 0
-4516 4502 0
-4516 4507 0
-4516 4505 0
4517 -4507 -4504 -4505 0
-4517 4507 0
-4517 4504 0
-4517 4505 0
4518 -4501 -4508 -4503 0
-4518 4501 0
-4518 4508 0
-4518 4503 0
4519 -4505 -4502 -4508 0
-4519 4505 0
-4519 4502 0
-4519 4508 0
4520 -4502 -4506 -4502 0
-4520 4502 0
-4520 4506 0
-4520 4502 0
4521 -4515 -4516 -4519 0
-4521 4515 0
-4521 4516 0
-4521 4519 0
4522 -4518 -4513 -4512 0
-4522 4518 0
-4522 4513 0
-4522 4512 0
4523 -4520 -4513 -4514 0
-4523 4520 0
-4523 4513 0
-4523 4514 0
4524 -4516 -4513 -4514 0
-4524 4516 0
-4524 4513 0
-4524 4514 0
4525 -4515 -4514 -4517 0
-4525 4515 0
-4525 4514 0
-4525 4517 0
4526 -4515 -4514 -4519 0
-4526 4515 0
-4526 4514 0
-4526 4519 0
4527 -4511 -4513 -4512 0
-4527 4511 0
-4527 4513 0
-4527 4512 0
4528 -4514 -4514 -4514 0
-4528 4514 0
-4528 4514 0
-4528 4514 0
4529 -4511 -4514 -4518 0
-4529 4511 0
-4529 4514 0
-4529 4518 0
4530 -4511 -4514 -4514 0
-4530 4511 0
-4530 4514 0
-4530 4514 0
4531 -4525 -4530 -4525 0
-4531 4525 0
-4531 4530 0
-4531 4525 0
4532 -4525 -4523 -4524 0
-4532 4525 0
-4532 4523 0
-4532 4524 0
4533 -4525 -4522 -4523 0
-4533 4525 0
-4533 4522 0
-4533 4523 0
4534 -4530 -4530 -4530 0
-4534 4530 0
-4534 4530 0
-4534 4530 0
4535 -4530 -4526 -4523 0
-4535 4530 0
-4535 4526 0
-4535 4523 0
4536 -4526 -4526 -4523 0
-4536 4526 0
-4536 4526 0
-4536 4523 0
4537 -4525 -4523 -4523 0
-4537 4525 0
-4537 4523 0
-4537 4523 0
4538 -4523 -4525 -4527 0
-4538 4523 0
-4538 4525 0
-4538 4527 0
4539 -4523 -4527 -4524 0
-4539 4523 0
-4539 4527 0
-4539 4524 0
4540 -4526 -4521 -4526 0
-4540 4526 0
-4540 4521 0
-4540 4526 0
4541 -4539 -4534 -4538 0
-4541 4539 0
-4541 4534 0
-4541 4538 0
4542 -4536 -4532 -4532 0
-4542 4536 0
-4542 4532 0
-4542 4532 0
4543 -4533 -4540 -4537 0
-4543 4533 0
-4543 4540 0
-4543 4537 0
4544 -4538 -4531 -4532 0
-4544 4538 0
-4544 4531 0
-4544 4532 0
4545 -4537 -4533 -4537 0
-4545 4537 0
-4545 4533 0
-4545 4537 0
4546 -4535 -4532 -4539 0
-4546 4535 0
-4546 4532 0
-4546 4539 0
4547 -4537 -4534 -4539 0
-4547 4537 0
-4547 4534 0
-4547 4539 0
4548 -4531 -4533 -4531 0
-4548 4531 0
-4548 4533 0
-4548 4531 0
4549 -4540 -4534 -4536 0
-4549 4540 0
-4549 4534 0
-4549 4536 0
4550 -4536 -4538 -4538 0
-4550 4536 0
-4550 4538 0
-4550 4538 0
4551 -4543 -4544 -4541 0
-4551 4543 0
-4551 4544 0
-4551 4541 0
4552 -4541 -4544 -4542 0
-4552 4541 0
-4552 4544 0
-4552 4542 0
4553 -4544 -4542 -4542 0
-4553 4544 0
-4553 4542 0
-4553 4542 0
4554 -4544 -4547 -4545 0
-4554 4544 0
-4554 4547 0
-4554 4545 0
4555 -4545 -4549 -4546 0
-4555 4545 0
-4555 4549 0
-4555 4546 0
4556 -4548 -4549 -4546 0
-4556 4548 0
-4556 4549 0
-4556 4546 0
4557 -4541 -4549 -4542 0
-4557 4541 0
-4557 4549 0
-4557 4542 0
4558 -4545 -4550 -4547 0
-4558 4545 0
-4558 4550 0
-4558 4547 0
4559 -4546 -4544 -4547 0
-4559 4546 0
-4559 4544 0
-4559 4547 0
4560 -4547 -4549 -4546 0
-4560 4547 0
-4560 4549 0
-4560 4546 0
4561 -4555 -4556 -4554 0
-4561 4555 0
-4561 4556 0
-4561 4554 0
4562 -4551 -4559 -4551 0
-4562 4551 0
-4562 4559 0
-4562 4551 0
4563 -4551 -4551 -4552 0
-4563 4551 0
-4563 4551 0
-4563 4552 0
4564 -4559 -4558 -4555 0
-4564 4559 0
-4564 4558 0
-4564 4555 0
4565 -4559 -4556 -4554 0
-4565 4559 0
-4565 4556 0
-4565 4554 0
4566 -4556 -4551 -4557 0
-4566 4556 0
-4566 4551 0
-4566 4557 0
4567 -4551 -4559 -4552 0
-4567 4551 0
-4567 4559 0
-4567 4552 0
4568 -4554 -4551 -4552 0
-4568 4554 0
-4568 4551 0
-4568 4552 0
4569 -4557 -4559 -4560 0
-4569 4557 0
-4569 4559 0
-4569 4560 0
4570 -4559 -4556 -4553 0
-4570 4559 0
-4570 4556 0
-4570 4553 0
4571 -4570 -4569 -4570 0
-4571 4570 0
-4571 4569 0
-4571 4570 0
4572 -4561 -4561 -4567 0
-4572 4561 0
-4572 4561 0
-4572 4567 0
4573 -4561 -4564 -4562 0
-4573 4561 0
-4573 4564 0
-4573 4562 0
4574 -4569 -4564 -4561 0
-4574 4569 0
-4574 4564 0
-4574 4561 0
4575 -4567 -4569 -4570 0
-4575 4567 0
-4575 4569 0
-4575 4570 0
4576 -4563 -4561 -4569 0
-4576 4563 0
-4576 4561 0
-4576 4569 0
4577 -4570 -4566 -4564 0
-4577 4570 0
-4577 4566 0
-4577 4564 0
4578 -4565 -4568 -4562 0
-4578 4565 0
-4578 4568 0
-4578 4562 0
4579 -4564 -4569 -4569 0
-4579 4564 0
-4579 4569 0
-4579 4569 0
4580 -4561 -4565 -4561 0
-4580 4561 0
-4580 4565 0
-4580 4561 0
4581 -4578 -4572 -4575 0
-4581 4578 0
-4581 4572 0
-4581 4575 0
4582 -4576 -4572 -4579 0
-4582 4576 0
-4582 4572 0
-4582 4579 0
4583 -4575 -4575 -4576 0
-4583 4575 0
-4583 4575 0
-4583 4576 0
4584 -4578 -4576 -4579 0
-4584 4578 0
-4584 4576 0
-4584 4579 0
4585 -4579 -4574 -4575 0
-4585 4579 0
-4585 4574 0
-4585 4575 0
4586 -4577 -4578 -4575 0
-4586 4577 0
-4586 4578 0
-4586 4575 0
4587 -4571 -4571 -4576 0
-4587 4571 0
-4587 4571 0
-4587 4576 0
4588 -4576 -4572 -4575 0
-4588 4576 0
-4588 4572 0
-4588 4575 0
4589 -4572 -4580 -4577 0
-4589 4572 0
-4589 4580 0
-4589 4577 0
4590 -4579 -4575 -4574 0
-4590 4579 0
-4590 4575 0
-4590 4574 0
4591 -4581 -4590 -4582 0
-4591 4581 0
-4591 4590 0
-4591 4582 0
4592 -4583 -4589 -4586 0
-4592 4583 0
-4592 4589 0
-4592 4586 0
4593 -4588 -4584 -4585 0
-4593 4588 0
-4593 4584 0
-4593 4585 0
4594 -4585 -4587 -4586 0
-4594 4585 0
-4594 4587 0
-4594 4586 0
4595 -4590 -4589 -4589 0
-4595 4590 0
-4595 4589 0
-4595 4589 0
4596 -4583 -4582 -4584 0
-4596 4583 0
-4596 4582 0
-4596 4584 0
4597 -4581 -4585 -4581 0
-4597 4581 0
-4597 4585 0
-4597 4581 0
4598 -4589 -4585 -4585 0
-4598 4589 0
-4598 4585 0
-4598 4585 0
4599 -4585 -4581 -4590 0
-4599 4585 0
-4599 4581 0
-4599 4590 0
4600 -4590 -4590 -4587 0
-4600 4590 0
-4600 4590 0
-4600 4587 0
4601 -4597 -4599 -4594 0
-4601 4597 0
-4601 4599 0
-4601 4594 0
4602 -4595 -4595 -4599 0
-4602 4595 0
-4602 4595 0
-4602 4599 0
4603 -4600 -4595 -4599 0
-4603 4600 0
-4603 4595 0
-4603 4599 0
4604 -4592 -4593 -4600 0
-4604 4592 0
-4604 4593 0
-4604 4600 0
4605 -4599 -4595 -4592 0
-4605 4599 0
-4605 4595 0
-4605 4592 0
4606 -4592 -4599 -4593 0
-4606 4592 0
-4606 4599 0
-4606 4593 0
4607 -4591 -4597 -4599 0
-4607 4591 0
-4607 4597 0
-4607 4599 0
4608 -4599 -4595 -4595 0
-4608 4599 0
-4608 4595 0
-4608 4595 0
4609 -4595 -4598 -4594 0
-4609 4595 0
-4609 4598 0
-4609 4594 0
4610 -4595 -4597 -4598 0
-4610 4595 0
-4610 4597 0
-4610 4598 0
4611 -4607 -4610 -4608 0
-4611 4607 0
-4611 4610 0
-4611 4608 0
4612 -4603 -4601 -4601 0
-4612 4603 0
-4612 4601 0
-4612 4601 0
4613 -4608 -4603 -4607 0
-4613 4608 0
-4613 4603 0
-4613 4607 0
4614 -4607 -4608 -4602 0
-4614 4607 0
-4614 4608 0
-4614 4602 0
4615 -4602 -4605 -4609 0
-4615 4602 0
-4615 4605 0
-4615 4609 0
4616 -4610 -4604 -4601 0
-4616 4610 0
-4616 4604 0
-4616 4601 0
4617 -4602 -4603 -4601 0
-4617 4602 0
-4617 4603 0
-4617 4601 0
4618 -4605 -4603 -4603 0
-4618 4605 0
-4618 4603 0
-4618 4603 0
4619 -4605 -4606 -4604 0
-4619 4605 0
-4619 4606 0
-4619 4604 0
4620 -4601 -4610 -4602 0
-4620 4601 0
-4620 4610 0
-4620 4602 0
4621 -4617 -4613 -4615 0
-4621 4617 0
-4621 4613 0
-4621 4615 0
4622 -4617 -4616 -4611 0
-4622 4617 0
-4622 4616 0
-4622 4611 0
4623 -4618 -4614 -4616 0
-4623 4618 0
-4623 4614 0
-4623 4616 0
4624 -4616 -4613 -4615 0
-4624 4616 0
-4624 4613 0
-4624 4615 0
4625 -4617 -4618 -4614 0
-4625 4617 0
-4625 4618 0
-4625 4614 0
4626 -4617 -4618 -4614 0
-4626 4617 0
-4626 4618 0
-4626 4614 0
4627 -4617 -4616 -4612 0
-4627 4617 0
-4627 4616 0
-4627 4612 0
4628 -4616 -4613 -4614 0
-4628 4616 0
-4628 4613 0
-4628 4614 0
4629 -4615 -4618 -4618 0
-4629 4615 0
-4629 4618 0
-4629 4618 0
4630 -4617 -4619 -4613 0
-4630 4617 0
-4630 4619 0
-4630 4613 0
4631 -4629 -4627 -4626 0
-4631 4629 0
-4631 4627 0
-4631 4626 0
4632 -4622 -4626 -4623 0
-4632 4622 0
-4632 4626 0
-4632 4623 0
4633 -4622 -4622 -4623 0
-4633 4622 0
-4633 4622 0
-4633 4623 0
4634 -4630 -4624 -4624 0
-4634 4630 0
-4634 4624 0
-4634 4624 0
4635 -4628 -4621 -4621 0
-4635 4628 0
-4635 4621 0
-4635 4621 0
4636 -4624 -4623 -4624 0
-4636 4624 0
-4636 4623 0
-4636 4624 0
4637 -4630 -4624 -4626 0
-4637 4630 0
-4637 4624 0
-4637 4626 0
4638 -4628 -4630 -4626 0
-4638 4628 0
-4638 4630 0
-4638 4626 0
4639 -4627 -4626 -4624 0
-4639 4627 0
-4639 4626 0
-4639 4624 0
4640 -4630 -4622 -4624 0
-4640 4630 0
-4640 4622 0
-4640 4624 0
4641 -4632 -4637 -4637 0
-4641 4632 0
-4641 4637 0
-4641 4637 0
4642 -4639 -4633 -4640 0
-4642 4639 0
-4642 4633 0
-4642 4640 0
4643 -4634 -4633 -4631 0
-4643 4634 0
-4643 4633 0
-4643 4631 0
4644 -4639 -4635 -4638 0
-4644 4639 0
-4644 4635 0
-4644 4638 0
4645 -4636 -4638 -4640 0
-4645 4636 0
-4645 4638 0
-4645 4640 0
4646 -4640 -4631 -4632 0
-4646 4640 0
-4646 4631 0
-4646 4632 0
4647 -4631 -4640 -4640 0
-4647 4631 0
-4647 4640 0
-4647 4640 0
4648 -4637 -4639 -4634 0
-4648 4637 0
-4648 4639 0
-4648 4634 0
4649 -4633 -4640 -4631 0
-4649 4633 0
-4649 4640 0
-4649 4631 0
4650 -4637 -4635 -4640 0
-4650 4637 0
-4650 4635 0
-4650 4640 0
4651 -4645 -4646 -4648 0
-4651 4645 0
-4651 4646 0
-4651 4648 0
4652 -4649 -4643 -4649 0
-4652 4649 0
-4652 4643 0
-4652 4649 0
4653 -4649 -4649 -4645 0
-4653 4649 0
-4653 4649 0
-4653 4645 0
4654 -4647 -4645 -4642 0
-4654 4647 0
-4654 4645 0
-4654 4642 0
4655 -4646 -4642 -4644 0
-4655 4646 0
-4655 4642 0
-4655 4644 0
4656 -4646 -4650 -4644 0
-4656 4646 0
-4656 4650 0
-4656 4644 0
4657 -4642 -4650 -4645 0
-4657 4642 0
-4657 4650 0
-4657 4645 0
4658 -4650 -4642 -4648 0
-4658 4650 0
-4658 4642 0
-4658 4648 0
4659 -4649 -4643 -4650 0
-4659 4649 0
-4659 4643 0
-4659 4650 0
4660 -4648 -4641 -4641 0
-4660 4648 0
-4660 4641 0
-4660 4641 0
4661 -4659 -4655 -4651 0
-4661 4659 0
-4661 4655 0
-4661 4651 0
4662 -4653 -4659 -4660 0
-4662 4653 0
-4662 4659 0
-4662 4660 0
4663 -4660 -4652 -4656 0
-4663 4660 0
-4663 4652 0
-4663 4656 0
4664 -4659 -4660 -4656 0
-4664 4659 0
-4664 4660 0
-4664 4656 0
4665 -4653 -4653 -4652 0
-4665 4653 0
-4665 4653 0
-4665 4652 0
4666 -4656 -4656 -4654 0
-4666 4656 0
-4666 4656 0
-4666 4654 0
4667 -4651 -4653 -4656 0
-4667 4651 0
-4667 4653 0
-4667 4656 0
4668 -4655 -4656 -4652 0
-4668 4655 0
-4668 4656 0
-4668 4652 0
4669 -4659 -4660 -4652 0
-4669 4659 0
-4669 4660 0
-4669 4652 0
4670 -4652 -4658 -4658 0
-4670 4652 0
-4670 4658 0
-4670 4658 0
4671 -4670 -4666 -4669 0
-4671 4670 0
-4671 4666 0
-4671 4669 0
4672 -4666 -4667 -4669 0
-4672 4666 0
-4672 4667 0
-4672 4669 0
4673 -4669 -4669 -4661 0
-4673 4669 0
-4673 4669 0
-4673 4661 0
4674 -4670 -4670 -4665 0
-4674 4670 0
-4674 4670 0
-4674 4665 0
4675 -4664 -4668 -4666 0
-4675 4664 0
-4675 4668 0
-4675 4666 0
4676 -4661 -4670 -4670 0
-4676 4661 0
-4676 4670 0
-4676 4670 0
4677 -4664 -4669 -4666 0
-4677 4664 0
-4677 4669 0
-4677 4666 0
4678 -4668 -4666 -4669 0
-4678 4668 0
-4678 4666 0
-4678 4669 0
4679 -4665 -4667 -4667 0
-4679 4665 0
-4679 4667 0
-4679 4667 0
4680 -4661 -4661 -4662 0
-4680 4661 0
-4680 4661 0
-4680 4662 0
4681 -4675 -4676 -4680 0
-4681 4675 0
-4681 4676 0
-4681 4680 0
4682 -4672 -4671 -4680 0
-4682 4672 0
-4682 4671 0
-4682 4680 0
4683 -4677 -4674 -4679 0
-4683 4677 0
-4683 4674 0
-4683 4679 0
4684 -4674 -4678 -4672 0
-4684 4674 0
-4684 4678 0
-4684 4672 0
4685 -4676 -4676 -4679 0
-4685 4676 0
-4685 4676 0
-4685 4679 0
4686 -4674 -4679 -4678 0
-4686 4674 0
-4686 4679 0
-4686 4678 0
4687 -4679 -4672 -4675 0
-4687 4679 0
-4687 4672 0
-4687 4675 0
4688 -4673 -4679 -4674 0
-4688 4673 0
-4688 4679 0
-4688 4674 0
4689 -4679 -4672 -4674 0
-4689 4679 0
-4689 4672 0
-4689 4674 0
4690 -4680 -4680 -4674 0
-4690 4680 0
-4690 4680 0
-4690 4674 0
4691 -4689 -4684 -4687 0
-4691 4689 0
-4691 4684 0
-4691 4687 0
4692 -4688 -4681 -4689 0
-4692 4688 0
-4692 4681 0
-4692 4689 0
4693 -4689 -4681 -4682 0
-4693 4689 0
-4693 4681 0
-4693 4682 0
4694 -4687 -4690 -4687 0
-4694 4687 0
-4694 4690 0
-4694 4687 0
4695 -4686 -4686 -4684 0
-4695 4686 0
-4695 4686 0
-4695 4684 0
4696 -4690 -4686 -4685 0
-4696 4690 0
-4696 4686 0
-4696 4685 0
4697 -4681 -4684 -4683 0
-4697 4681 0
-4697 4684 0
-4697 4683 0
4698 -4685 -4688 -4686 0
-4698 4685 0
-4698 4688 0
-4698 4686 0
4699 -4685 -4681 -4687 0
-4699 4685 0
-4699 4681 0
-4699 4687 0
4700 -4684 -4689 -4681 0
-4700 4684 0
-4700 4689 0
-4700 4681 0
4701 -4694 -4694 -4693 0
-4701 4694 0
-4701 4694 0
-4701 4693 0
4702 -4692 -4691 -4700 0
-4702 4692 0
-4702 4691 0
-4702 4700 0
4703 -4693 -4691 -4700 0
-4703 4693 0
-4703 4691 0
-4703 4700 0
4704 -4694 -4696 -4695 0
-4704 4694 0
-4704 4696 0
-4704 4695 0
4705 -4698 -4696 -4699 0
-4705 4698 0
-4705 4696 0
-4705 4699 0
4706 -4700 -4699 -4700 0
-4706 4700 0
-4706 4699 0
-4706 4700 0
4707 -4694 -4694 -4693 0
-4707 4694 0
-4707 4694 0
-4707 4693 0
4708 -4696 -4694 -4698 0
-4708 4696 0
-4708 4694 0
-4708 4698 0
4709 -4695 -4696 -4696 0
-4709 4695 0
-4709 4696 0
-4709 4696 0
4710 -4693 -4693 -4696 0
-4710 4693 0
-4710 4693 0
-4710 4696 0
4711 -4703 -4704 -4702 0
-4711 4703 0
-4711 4704 0
-4711 4702 0
4712 -4702 -4704 -4707 0
-4712 4702 0
-4712 4704 0
-4712 4707 0
4713 -4701 -4701 -4707 0
-4713 4701 0
-4713 4701 0
-4713 4707 0
4714 -4710 -4708 -4706 0
-4714 4710 0
-4714 4708 0
-4714 4706 0
4715 -4702 -4705 -4707 0
-4715 4702 0
-4715 4705 0
-4715 4707 0
4716 -4706 -4704 -4701 0
-4716 4706 0
-4716 4704 0
-4716 4701 0
4717 -4704 -4701 -4706 0
-4717 4704 0
-4717 4701 0
-4717 4706 0
4718 -4708 -4702 -4702 0
-4718 4708 0
-4718 4702 0
-4718 4702 0
4719 -4703 -4701 -4710 0
-4719 4703 0
-4719 4701 0
-4719 4710 0
4720 -4707 -4707 -4706 0
-4720 4707 0
-4720 4707 0
-4720 4706 0
4721 -4715 -4720 -4715 0
-4721 4715 0
-4721 4720 0
-4721 4715 0
4722 -4717 -4719 -4719 0
-4722 4717 0
-4722 4719 0
-4722 4719 0
4723 -4711 -4715 -4715 0
-4723 4711 0
-4723 4715 0
-4723 4715 0
4724 -4717 -4718 -4717 0
-4724 4717 0
-4724 4718 0
-4724 4717 0
4725 -4714 -4711 -4716 0
-4725 4714 0
-4725 4711 0
-4725 4716 0
4726 -4717 -4717 -4711 0
-4726 4717 0
-4726 4717 0
-4726 4711 0
4727 -4712 -4714 -4715 0
-4727 4712 0
-4727 4714 0
-4727 4715 0
4728 -4714 -4718 -4719 0
-4728 4714 0
-4728 4718 0
-4728 4719 0
4729 -4716 -4712 -4714 0
-4729 4716 0
-4729 4712 0
-4729 4714 0
4730 -4714 -4716 -4719 0
-4730 4714 0
-4730 4716 0
-4730 4719 0
4731 -4730 -4721 -4726 0
-4731 4730 0
-4731 4721 0
-4731 4726 0
4732 -4724 -4725 -4726 0
-4732 4724 0
-4732 4725 0
-4732 4726 0
4733 -4727 -4725 -4728 0
-4733 4727 0
-4733 4725 0
-4733 4728 0
4734 -4724 -4729 -4730 0
-4734 4724 0
-4734 4729 0
-4734 4730 0
4735 -4725 -4724 -4728 0
-4735 4725 0
-4735 4724 0
-4735 4728 0
4736 -4724 -4726 -4726 0
-4736 4724 0
-4736 4726 0
-4736 4726 0
4737 -4723 -4726 -4727 0
-4737 4723 0
-4737 4726 0
-4737 4727 0
4738 -4726 -4723 -4721 0
-4738 4726 0
-4738 4723 0
-4738 4721 0
4739 -4722 -4730 -4730 0
-4739 4722 0
-4739 4730 0
-4739 4730 0
4740 -4726 -4726 -4721 0
-4740 4726 0
-4740 4726 0
-4740 4721 0
4741 -4732 -4738 -4736 0
-4741 4732 0
-4741 4738 0
-4741 4736 0
4742 -4732 -4739 -4734 0
-4742 4732 0
-4742 4739 0
-4742 4734 0
4743 -4740 -4733 -4733 0
-4743 4740 0
-4743 4733 0
-4743 4733 0
4744 -4732 -4738 -4740 0
-4744 4732 0
-4744 4738 0
-4744 4740 0
4745 -4735 -4732 -4737 0
-4745 4735 0
-4745 4732 0
-4745 4737 0
4746 -4736 -4732 -4737 0
-4746 4736 0
-4746 4732 0
-4746 4737 0
4747 -4735 -4738 -4734 0
-4747 4735 0
-4747 4738 0
-4747 4734 0
4748 -4735 -4734 -4737 0
-4748 4735 0
-4748 4734 0
-4748 4737 0
4749 -4738 -4734 -4738 0
-4749 4738 0
-4749 4734 0
-4749 4738 0
4750 -4733 -4740 -4734 0
-4750 4733 0
-4750 4740 0
-4750 4734 0
4751 -4743 -4749 -4742 0
-4751 4743 0
-4751 4749 0
-4751 4742 0
4752 -4744 -4746 -4744 0
-4752 4744 0
-4752 4746 0
-4752 4744 0
4753 -4742 -4747 -4746 0
-4753 4742 0
-4753 4747 0
-4753 4746 0
4754 -4744 -4749 -4745 0
-4754 4744 0
-4754 4749 0
-4754 4745 0
4755 -4741 -4743 -4745 0
-4755 4741 0
-4755 4743 0
-4755 4745 0
4756 -4745 -4749 -4746 0
-4756 4745 0
-4756 4749 0
-4756 4746 0
4757 -4743 -4750 -4750 0
-4757 4743 0
-4757 4750 0
-4757 4750 0
4758 -4746 -4743 -4741 0
-4758 4746 0
-4758 4743 0
-4758 4741 0
4759 -4745 -4748 -4745 0
-4759 4745 0
-4759 4748 0
-4759 4745 0
4760 -4747 -4747 -4748 0
-4760 4747 0
-4760 4747 0
-4760 4748 0
4761 -4756 -4760 -4756 0
-4761 4756 0
-4761 4760 0
-4761 4756 0
4762 -4753 -4760 -4759 0
-4762 4753 0
-4762 4760 0
-4762 4759 0
4763 -4759 -4752 -4752 0
-4763 4759 0
-4763 4752 0
-4763 4752 0
4764 -4751 -4759 -4759 0
-4764 4751 0
-4764 4759 0
-4764 4759 0
4765 -4753 -4752 -4758 0
-4765 4753 0
-4765 4752 0
-4765 4758 0
4766 -4753 -4760 -4755 0
-4766 4753 0
-4766 4760 0
-4766 4755 0
4767 -4752 -4758 -4757 0
-4767 4752 0
-4767 4758 0
-4767 4757 0
4768 -4753 -4757 -4759 0
-4768 4753 0
-4768 4757 0
-4768 4759 0
4769 -4755 -4757 -4755 0
-4769 4755 0
-4769 4757 0
-4769 4755 0
4770 -4758 -4758 -4756 0
-4770 4758 0
-4770 4758 0
-4770 4756 0
4771 -4764 -4764 -4766 0
-4771 4764 0
-4771 4764 0
-4771 4766 0
4772 -4763 -4765 -4766 0
-4772 4763 0
-4772 4765 0
-4772 4766 0
4773 -4767 -4769 -4764 0
-4773 4767 0
-4773 4769 0
-4773 4764 0
4774 -4761 -4765 -4765 0
-4774 4761 0
-4774 4765 0
-4774 4765 0
4775 -4765 -4765 -4766 0
-4775 4765 0
-4775 4765 0
-4775 4766 0
4776 -4768 -4768 -4765 0
-4776 4768 0
-4776 4768 0
-4776 4765 0
4777 -4770 -4763 -4761 0
-4777 4770 0
-4777 4763 0
-4777 4761 0
4778 -4769 -4767 -4765 0
-4778 4769 0
-4778 4767 0
-4778 4765 0
4779 -4769 -4767 -4765 0
-4779 4769 0
-4779 4767 0
-4779 4765 0
4780 -4765 -4763 -4766 0
-4780 4765 0
-4780 4763 0
-4780 4766 0
4781 -4777 -4772 -4778 0
-4781 4777 0
-4781 4772 0
-4781 4778 0
4782 -4774 -4775 -4778 0
-4782 4774 0
-4782 4775 0
-4782 4778 0
4783 -4775 -4771 -4776 0
-4783 4775 0
-4783 4771 0
-4783 4776 0
4784 -4779 -4778 -4778 0
-4784 4779 0
-4784 4778 0
-4784 4778 0
4785 -4772 -4779 -4776 0
-4785 4772 0
-4785 4779 0
-4785 4776 0
4786 -4774 -4778 -4780 0
-4786 4774 0
-4786 4778 0
-4786 4780 0
4787 -4777 -4773 -4780 0
-4787 4777 0
-4787 4773 0
-4787 4780 0
4788 -4772 -4778 -4778 0
-4788 4772 0
-4788 4778 0
-4788 4778 0
4789 -4773 -4778 -4778 0
-4789 4773 0
-4789 4778 0
-4789 4778 0
4790 -4779 -4774 -4772 0
-4790 4779 0
-4790 4774 0
-4790 4772 0
4791 -4784 -4790 -4781 0
-4791 4784 0
-4791 4790 0
-4791 4781 0
4792 -4784 -4790 -4785 0
-4792 4784 0
-4792 4790 0
-4792 4785 0
4793 -4782 -4790 -4787 0
-4793 4782 0
-4793 4790 0
-4793 4787 0
4794 -4785 -4789 -4788 0
-4794 4785 0
-4794 4789 0
-4794 4788 0
4795 -4781 -4783 -4783 0
-4795 4781 0
-4795 4783 0
-4795 4783 0
4796 -4783 -4787 -4783 0
-4796 4783 0
-4796 4787 0
-4796 4783 0
4797 -4790 -4781 -4783 0
-4797 4790 0
-4797 4781 0
-4797 4783 0
4798 -4784 -4783 -4782 0
-4798 4784 0
-4798 4783 0
-4798 4782 0
4799 -4788 -4790 -4789 0
-4799 4788 0
-4799 4790 0
-4799 4789 0
4800 -4785 -4784 -4787 0
-4800 4785 0
-4800 4784 0
-4800 4787 0
4801 -4793 -4798 -4799 0
-4801 4793 0
-4801 4798 0
-4801 4799 0
4802 -4791 -4794 -4792 0
-4802 4791 0
-4802 4794 0
-4802 4792 0
4803 -4798 -4794 -4795 0
-4803 4798 0
-4803 4794 0
-4803 4795 0
4804 -4795 -4793 -4794 0
-4804 4795 0
-4804 4793 0
-4804 4794 0
4805 -4795 -4800 -4797 0
-4805 4795 0
-4805 4800 0
-4805 4797 0
4806 -4800 -4791 -4798 0
-4806 4800 0
-4806 4791 0
-4806 4798 0
4807 -4792 -4800 -4799 0
-4807 4792 0
-4807 4800 0
-4807 4799 0
4808 -4797 -4796 -4800 0
-4808 4797 0
-4808 4796 0
-4808 4800 0
4809 -4795 -4792 -4791 0
-4809 4795 0
-4809 4792 0
-4809 4791 0
4810 -4794 -4791 -4793 0
-4810 4794 0
-4810 4791 0
-4810 4793 0
4811 -4804 -4803 -4805 0
-4811 4804 0
-4811 4803 0
-4811 4805 0
4812 -4803 -4802 -4808 0
-4812 4803 0
-4812 4802 0
-4812 4808 0
4813 -4802 -4803 -4806 0
-4813 4802 0
-4813 4803 0
-4813 4806 0
4814 -4807 -4807 -4803 0
-4814 4807 0
-4814 4807 0
-4814 4803 0
4815 -4807 -4803 -4810 0
-4815 4807 0
-4815 4803 0
-4815 4810 0
4816 -4809 -4808 -4810 0
-4816 4809 0
-4816 4808 0
-4816 4810 0
4817 -4802 -4803 -4805 0
-4817 4802 0
-4817 4803 0
-4817 4805 0
4818 -4806 -4805 -4808 0
-4818 4806 0
-4818 4805 0
-4818 4808 0
4819 -4810 -4810 -4807 0
-4819 4810 0
-4819 4810 0
-4819 4807 0
4820 -4805 -4808 -4809 0
-4820 4805 0
-4820 4808 0
-4820 4809 0
4821 -4813 -4813 -4813 0
-4821 4813 0
-4821 4813 0
-4821 4813 0
4822 -4819 -4820 -4813 0
-4822 4819 0
-4822 4820 0
-4822 4813 0
4823 -4820 -4815 -4817 0
-4823 4820 0
-4823 4815 0
-4823 4817 0
4824 -4818 -4813 -4815 0
-4824 4818 0
-4824 4813 0
-4824 4815 0
4825 -4811 -4813 -4814 0
-4825 4811 0
-4825 4813 0
-4825 4814 0
4826 -4813 -4819 -4816 0
-4826 4813 0
-4826 4819 0
-4826 4816 0
4827 -4812 -4817 -4813 0
-4827 4812 0
-4827 4817 0
-4827 4813 0
4828 -4811 -4811 -4817 0
-4828 4811 0
-4828 4811 0
-4828 4817 0
4829 -4816 -4817 -4820 0
-4829 4816 0
-4829 4817 0
-4829 4820 0
4830 -4815 -4816 -4815 0
-4830 4815 0
-4830 4816 0
-4830 4815 0
4831 -4826 -4824 -4828 0
-4831 4826 0
-4831 4824 0
-4831 4828 0
4832 -4821 -4830 -4823 0
-4832 4821 0
-4832 4830 0
-4832 4823 0
4833 -4826 -4823 -4822 0
-4833 4826 0
-4833 4823 0
-4833 4822 0
4834 -4830 -4821 -4822 0
-4834 4830 0
-4834 4821 0
-4834 4822 0
4835 -4827 -4830 -4821 0
-4835 4827 0
-4835 4830 0
-4835 4821 0
4836 -4826 -4823 -4826 0
-4836 4826 0
-4836 4823 0
-4836 4826 0
4837 -4830 -4821 -4822 0
-4837 4830 0
-4837 4821 0
-4837 4822 0
4838 -4823 -4824 -4829 0
-4838 4823 0
-4838 4824 0
-4838 4829 0
4839 -4823 -4825 -4824 0
-4839 4823 0
-4839 4825 0
-4839 4824 0
4840 -4824 -4822 -4829 0
-4840 4824 0
-4840 4822 0
-4840 4829 0
4841 -4833 -4833 -4837 0
-4841 4833 0
-4841 4833 0
-4841 4837 0
4842 -4835 -4836 -4832 0
-4842 4835 0
-4842 4836 0
-4842 4832 0
4843 -4839 -4838 -4840 0
-4843 4839 0
-4843 4838 0
-4843 4840 0
4844 -4838 -4839 -4833 0
-4844 4838 0
-4844 4839 0
-4844 4833 0
4845 -4834 -4839 -4835 0
-4845 4834 0
-4845 4839 0
-4845 4835 0
4846 -4832 -4839 -4832 0
-4846 4832 0
-4846 4839 0
-4846 4832 0
4847 -4832 -4831 -4836 0
-4847 4832 0
-4847 4831 0
-4847 4836 0
4848 -4831 -4831 -4833 0
-4848 4831 0
-4848 4831 0
-4848 4833 0
4849 -4831 -4840 -4838 0
-4849 4831 0
-4849 4840 0
-4849 4838 0
4850 -4835 -4831 -4840 0
-4850 4835 0
-4850 4831 0
-4850 4840 0
4851 -4841 -4849 -4844 0
-4851 4841 0
-4851 4849 0
-4851 4844 0
4852 -4841 -4847 -4847 0
-4852 4841 0
-4852 4847 0
-4852 4847 0
4853 -4849 -4850 -4844 0
-4853 4849 0
-4853 4850 0
-4853 4844 0
4854 -4846 -4847 -4845 0
-4854 4846 0
-4854 4847 0
-4854 4845 0
4855 -4850 -4848 -4845 0
-4855 4850 0
-4855 4848 0
-4855 4845 0
4856 -4850 -4845 -4846 0
-4856 4850 0
-4856 4845 0
-4856 4846 0
4857 -4850 -4849 -4850 0
-4857 4850 0
-4857 4849 0
-4857 4850 0
4858 -4842 -4850 -4842 0
-4858 4842 0
-4858 4850 0
-4858 4842 0
4859 -4850 -4844 -4846 0
-4859 4850 0
-4859 4844 0
-4859 4846 0
4860 -4846 -4847 -4847 0
-4860 4846 0
-4860 4847 0
-4860 4847 0
4861 -4854 -4858 -4859 0
-4861 4854 0
-4861 4858 0
-4861 4859 0
4862 -4853 -4859 -4855 0
-4862 4853 0
-4862 4859 0
-4862 4855 0
4863 -4858 -4853 -4858 0
-4863 4858 0
-4863 4853 0
-4863 4858 0
4864 -4855 -4859 -4854 0
-4864 4855 0
-4864 4859 0
-4864 4854 0
4865 -4860 -4852 -4854 0
-4865 4860 0
-4865 4852 0
-4865 4854 0
4866 -4858 -4860 -4852 0
-4866 4858 0
-4866 4860 0
-4866 4852 0
4867 -4854 -4857 -4858 0
-4867 4854 0
-4867 4857 0
-4867 4858 0
4868 -4857 -4852 -4852 0
-4868 4857 0
-4868 4852 0
-4868 4852 0
4869 -4853 -4854 -4858 0
-4869 4853 0
-4869 4854 0
-4869 4858 0
4870 -4854 -4853 -4860 0
-4870 4854 0
-4870 4853 0
-4870 4860 0
4871 -4864 -4870 -4868 0
-4871 4864 0
-4871 4870 0
-4871 4868 0
4872 -4863 -4866 -4864 0
-4872 4863 0
-4872 4866 0
-4872 4864 0
4873 -4867 -4870 -4868 0
-4873 4867 0
-4873 4870 0
-4873 4868 0
4874 -4868 -4865 -4862 0
-4874 4868 0
-4874 4865 0
-4874 4862 0
4875 -4869 -4861 -4866 0
-4875 4869 0
-4875 4861 0
-4875 4866 0
4876 -4867 -4861 -4869 0
-4876 4867 0
-4876 4861 0
-4876 4869 0
4877 -4863 -4867 -4863 0
-4877 4863 0
-4877 4867 0
-4877 4863 0
4878 -4868 -4866 -4866 0
-4878 4868 0
-4878 4866 0
-4878 4866 0
4879 -4866 -4870 -4862 0
-4879 4866 0
-4879 4870 0
-4879 4862 0
4880 -4868 -4865 -4866 0
-4880 4868 0
-4880 4865 0
-4880 4866 0
4881 -4877 -4871 -4876 0
-4881 4877 0
-4881 4871 0
-4881 4876 0
4882 -4876 -4876 -4880 0
-4882 4876 0
-4882 4876 0
-4882 4880 0
4883 -4874 -4877 -4879 0
-4883 4874 0
-4883 4877 0
-4883 4879 0
4884 -4873 -4873 -4873 0
-4884 4873 0
-4884 4873 0
-4884 4873 0
4885 -4874 -4874 -4876 0
-4885 4874 0
-4885 4874 0
-4885 4876 0
4886 -4873 -4879 -4874 0
-4886 4873 0
-4886 4879 0
-4886 4874 0
4887 -4880 -4877 -4878 0
-4887 4880 0
-4887 4877 0
-4887 4878 0
4888 -4872 -4874 -4879 0
-4888 4872 0
-4888 4874 0
-4888 4879 0
4889 -4876 -4873 -4874 0
-4889 4876 0
-4889 4873 0
-4889 4874 0
4890 -4880 -4875 -4876 0
-4890 4880 0
-4890 4875 0
-4890 4876 0
4891 -4885 -4889 -4888 0
-4891 4885 0
-4891 4889 0
-4891 4888 0
4892 -4885 -4883 -4884 0
-4892 4885 0
-4892 4883 0
-4892 4884 0
4893 -4888 -4885 -4887 0
-4893 4888 0
-4893 4885 0
-4893 4887 0
4894 -4889 -4884 -4884 0
-4894 4889 0
-4894 4884 0
-4894 4884 0
4895 -4883 -4884 -4882 0
-4895 4883 0
-4895 4884 0
-4895 4882 0
4896 -4884 -4886 -4885 0
-4896 4884 0
-4896 4886 0
-4896 4885 0
4897 -4881 -4885 -4883 0
-4897 4881 0
-4897 4885 0
-4897 4883 0
4898 -4889 -4881 -4885 0
-4898 4889 0
-4898 4881 0
-4898 4885 0
4899 -4890 -4882 -4883 0
-4899 4890 0
-4899 4882 0
-4899 4883 0
4900 -4888 -4888 -4881 0
-4900 4888 0
-4900 4888 0
-4900 4881 0
4901 -4891 -4892 -4894 0
-4901 4891 0
-4901 4892 0
-4901 4894 0
4902 -4891 -4896 -4892 0
-4902 4891 0
-4902 4896 0
-4902 4892 0
4903 -4896 -4896 -4897 0
-4903 4896 0
-4903 4896 0
-4903 4897 0
4904 -4893 -4893 -4893 0
-4904 4893 0
-4904 4893 0
-4904 4893 0
4905 -4898 -4899 -4897 0
-4905 4898 0
-4905 4899 0
-4905 4897 0
4906 -4897 -4897 -4897 0
-4906 4897 0
-4906 4897 0
-4906 4897 0
4907 -4894 -4896 -4896 0
-4907 4894 0
-4907 4896 0
-4907 4896 0
4908 -4899 -4893 -4892 0
-4908 4899 0
-4908 4893 0
-4908 4892 0
4909 -4892 -4891 -4897 0
-4909 4892 0
-4909 4891 0
-4909 4897 0
4910 -4897 -4893 -4894 0
-4910 4897 0
-4910 4893 0
-4910 4894 0
4911 -4909 -4906 -4906 0
-4911 4909 0
-4911 4906 0
-4911 4906 0
4912 -4907 -4909 -4902 0
-4912 4907 0
-4912 4909 0
-4912 4902 0
4913 -4907 -4905 -4902 0
-4913 4907 0
-4913 4905 0
-4913 4902 0
4914 -4906 -4909 -4901 0
-4914 4906 0
-4914 4909 0
-4914 4901 0
4915 -4905 -4905 -4905 0
-4915 4905 0
-4915 4905 0
-4915 4905 0
4916 -4905 -4907 -4902 0
-4916 4905 0
-4916 4907 0
-4916 4902 0
4917 -4904 -4903 -4901 0
-4917 4904 0
-4917 4903 0
-4917 4901 0
4918 -4908 -4903 -4904 0
-4918 4908 0
-4918 4903 0
-4918 4904 0
4919 -4909 -4905 -4901 0
-4919 4909 0
-4919 4905 0
-4919 4901 0
4920 -4910 -4907 -4904 0
-4920 4910 0
-4920 4907 0
-4920 4904 0
4921 -4913 -4916 -4916 0
-4921 4913 0
-4921 4916 0
-4921 4916 0
4922 -4918 -4920 -4917 0
-4922 4918 0
-4922 4920 0
-4922 4917 0
4923 -4911 -4912 -4917 0
-4923 4911 0
-4923 4912 0
-4923 4917 0
4924 -4913 -4919 -4913 0
-4924 4913 0
-4924 4919 0
-4924 4913 0
4925 -4914 -4914 -4913 0
-4925 4914 0
-4925 4914 0
-4925 4913 0
4926 -4919 -4917 -4913 0
-4926 4919 0
-4926 4917 0
-4926 4913 0
4927 -4915 -4911 -4919 0
-4927 4915 0
-4927 4911 0
-4927 4919 0
4928 -4915 -4918 -4920 0
-4928 4915 0
-4928 4918 0
-4928 4920 0
4929 -4912 -4917 -4919 0
-4929 4912 0
-4929 4917 0
-4929 4919 0
4930 -4918 -4912 -4915 0
-4930 4918 0
-4930 4912 0
-4930 4915 0
4931 -4930 -4922 -4924 0
-4931 4930 0
-4931 4922 0
-4931 4924 0
4932 -4923 -4928 -4925 0
-4932 4923 0
-4932 4928 0
-4932 4925 0
4933 -4929 -4921 -4929 0
-4933 4929 0
-4933 4921 0
-4933 4929 0
4934 -4925 -4928 -4928 0
-4934 4925 0
-4934 4928 0
-4934 4928 0
4935 -4924 -4923 -4923 0
-4935 4924 0
-4935 4923 0
-4935 4923 0
4936 -4925 -4929 -4929 0
-4936 4925 0
-4936 4929 0
-4936 4929 0
4937 -4927 -4921 -4930 0
-4937 4927 0
-4937 4921 0
-4937 4930 0
4938 -4925 -4929 -4927 0
-4938 4925 0
-4938 4929 0
-4938 4927 0
4939 -4922 -4922 -4924 0
-4939 4922 0
-4939 4922 0
-4939 4924 0
4940 -4922 -4923 -4922 0
-4940 4922 0
-4940 4923 0
-4940 4922 0
4941 -4940 -4931 -4932 0
-4941 4940 0
-4941 4931 0
-4941 4932 0
4942 -4939 -4936 -4936 0
-4942 4939 0
-4942 4936 0
-4942 4936 0
4943 -4939 -4935 -4937 0
-4943 4939 0
-4943 4935 0
-4943 4937 0
4944 -4931 -4936 -4937 0
-4944 4931 0
-4944 4936 0
-4944 4937 0
4945 -4935 -4937 -4935 0
-4945 4935 0
-4945 4937 0
-4945 4935 0
4946 -4935 -4936 -4935 0
-4946 4935 0
-4946 4936 0
-4946 4935 0
4947 -4938 -4940 -4940 0
-4947 4938 0
-4947 4940 0
-4947 4940 0
4948 -4937 -4940 -4933 0
-4948 4937 0
-4948 4940 0
-4948 4933 0
4949 -4938 -4939 -4939 0
-4949 4938 0
-4949 4939 0
-4949 4939 0
4950 -4933 -4932 -4933 0
-4950 4933 0
-4950 4932 0
-4950 4933 0
4951 -4944 -4948 -4947 0
-4951 4944 0
-4951 4948 0
-4951 4947 0
4952 -4950 -4941 -4950 0
-4952 4950 0
-4952 4941 0
-4952 4950 0
4953 -4950 -4941 -4943 0
-4953 4950 0
-4953 4941 0
-4953 4943 0
4954 -4942 -4948 -4950 0
-4954 4942 0
-4954 4948 0
-4954 4950 0
4955 -4946 -4942 -4946 0
-4955 4946 0
-4955 4942 0
-4955 4946 0
4956 -4943 -4944 -4946 0
-4956 4943 0
-4956 4944 0
-4956 4946 0
4957 -4942 -4941 -4942 0
-4957 4942 0
-4957 4941 0
-4957 4942 0
4958 -4948 -4947 -4943 0
-4958 4948 0
-4958 4947 0
-4958 4943 0
4959 -4947 -4949 -4947 0
-4959 4947 0
-4959 4949 0
-4959 4947 0
4960 -4944 -4942 -4942 0
-4960 4944 0
-4960 4942 0
-4960 4942 0
4961 -4952 -4956 -4956 0
-4961 4952 0
-4961 4956 0
-4961 4956 0
4962 -4954 -4951 -4953 0
-4962 4954 0
-4962 4951 0
-4962 4953 0
4963 -4953 -4958 -4953 0
-4963 4953 0
-4963 4958 0
-4963 4953 0
4964 -4958 -4958 -4953 0
-4964 4958 0
-4964 4958 0
-4964 4953 0
4965 -4953 -4953 -4960 0
-4965 4953 0
-4965 4953 0
-4965 4960 0
4966 -4960 -4956 -4953 0
-4966 4960 0
-4966 4956 0
-4966 4953 0
4967 -4951 -4951 -4954 0
-4967 4951 0
-4967 4951 0
-4967 4954 0
4968 -4955 -4955 -4954 0
-4968 4955 0
-4968 4955 0
-4968 4954 0
4969 -4960 -4951 -4954 0
-4969 4960 0
-4969 4951 0
-4969 4954 0
4970 -4952 -4959 -4958 0
-4970 4952 0
-4970 4959 0
-4970 4958 0
4971 -4965 -4962 -4967 0
-4971 4965 0
-4971 4962 0
-4971 4967 0
4972 -4966 -4968 -4961 0
-4972 4966 0
-4972 4968 0
-4972 4961 0
4973 -4967 -4963 -4969 0
-4973 4967 0
-4973 4963 0
-4973 4969 0
4974 -4966 -4964 -4961 0
-4974 4966 0
-4974 4964 0
-4974 4961 0
4975 -4967 -4965 -4969 0
-4975 4967 0
-4975 4965 0
-4975 4969 0
4976 -4962 -4969 -4963 0
-4976 4962 0
-4976 4969 0
-4976 4963 0
4977 -4964 -4962 -4963 0
-4977 4964 0
-4977 4962 0
-4977 4963 0
4978 -4966 -4965 -4963 0
-4978 4966 0
-4978 4965 0
-4978 4963 0
4979 -4970 -4964 -4964 0
-4979 4970 0
-4979 4964 0
-4979 4964 0
4980 -4962 -4969 -4962 0
-4980 4962 0
-4980 4969 0
-4980 4962 0
4981 -4980 -4980 -4978 0
-4981 4980 0
-4981 4980 0
-4981 4978 0
4982 -4979 -4974 -4973 0
-4982 4979 0
-4982 4974 0
-4982 4973 0
4983 -4973 -4978 -4977 0
-4983 4973 0
-4983 4978 0
-4983 4977 0
4984 -4978 -4974 -4971 0
-4984 4978 0
-4984 4974 0
-4984 4971 0
4985 -4973 -4973 -4977 0
-4985 4973 0
-4985 4973 0
-4985 4977 0
4986 -4971 -4977 -4974 0
-4986 4971 0
-4986 4977 0
-4986 4974 0
4987 -4972 -4976 -4971 0
-4987 4972 0
-4987 4976 0
-4987 4971 0
4988 -4974 -4976 -4971 0
-4988 4974 0
-4988 4976 0
-4988 4971 0
4989 -4971 -4980 -4973 0
-4989 4971 0
-4989 4980 0
-4989 4973 0
4990 -4977 -4974 -4974 0
-4990 4977 0
-4990 4974 0
-4990 4974 0
4991 -4988 -4989 -4988 0
-4991 4988 0
-4991 4989 0
-4991 4988 0
4992 -4982 -4986 -4989 0
-4992 4982 0
-4992 4986 0
-4992 4989 0
4993 -4988 -4984 -4989 0
-4993 4988 0
-4993 4984 0
-4993 4989 0
4994 -4985 -4986 -4989 0
-4994 4985 0
-4994 4986 0
-4994 4989 0
4995 -4984 -4990 -4984 0
-4995 4984 0
-4995 4990 0
-4995 4984 0
4996 -4982 -4984 -4985 0
-4996 4982 0
-4996 4984 0
-4996 4985 0
4997 -4989 -4982 -4983 0
-4997 4989 0
-4997 4982 0
-4997 4983 0
4998 -4985 -4989 -4988 0
-4998 4985 0
-4998 4989 0
-4998 4988 0
4999 -4987 -4981 -4987 0
-4999 4987 0
-4999 4981 0
-4999 4987 0
5000 -4987 -4989 -4981 0
-5000 4987 0
-5000 4989 0
-5000 4981 0
5001 -4994 -4999 -4991 0
-5001 4994 0
-5001 4999 0
-5001 4991 0
5002 -4992 -5000 -4993 0
-5002 4992 0
-5002 5000 0
-5002 4993 0
5003 -4998 -4999 -4995 0
-5003 4998 0
-5003 4999 0
-5003 4995 0
5004 -4993 -4993 -4997 0
-5004 4993 0
-5004 4993 0
-5004 4997 0
5005 -4993 -4992 -4996 0
-5005 4993 0
-5005 4992 0
-5005 4996 0
5006 -4998 -4993 -4996 0
-5006 4998 0
-5006 4993 0
-5006 4996 0
5007 -4993 -4997 -4991 0
-5007 4993 0
-5007 4997 0
-5007 4991 0
5008 -4993 -4997 -4995 0
-5008 4993 0
-5008 4997 0
-5008 4995 0
5009 -4994 -4995 -4996 0
-5009 4994 0
-5009 4995 0
-5009 4996 0
5010 -4994 -4996 -5000 0
-5010 4994 0
-5010 4996 0
-5010 5000 0
